 vasp.5.4.1 05Feb16 (build Feb 08 2018 09:21:51) complex

 executed on             LinuxIFC date 2019.11.13  15:48:06

 INCAR:
 POTCAR:    PAW_PBE Al 04Jan2001
 POTCAR:    PAW_PBE C 08Apr2002
 POTCAR:    PAW_PBE H 15Jun2001
 POTCAR:    PAW_PBE O 08Apr2002
 POTCAR:    PAW_PBE Si 05Jan2001
 POTCAR:    PAW_PBE Al 04Jan2001
   VRHFIN =Al: s2p1

   TITEL  = PAW_PBE Al 04Jan2001
   POMASS =   26.981; ZVAL   =    3.000    mass and valenz
   ENMAX  =  240.300; ENMIN  =  180.225 eV

 POTCAR:    PAW_PBE C 08Apr2002
   VRHFIN =C: s2p2

   TITEL  = PAW_PBE C 08Apr2002
   POMASS =   12.011; ZVAL   =    4.000    mass and valenz
   ENMAX  =  400.000; ENMIN  =  300.000 eV

 POTCAR:    PAW_PBE H 15Jun2001
   VRHFIN =H: ultrasoft test

   TITEL  = PAW_PBE H 15Jun2001
   POMASS =    1.000; ZVAL   =    1.000    mass and valenz
   ENMAX  =  250.000; ENMIN  =  200.000 eV

 POTCAR:    PAW_PBE O 08Apr2002
   VRHFIN =O: s2p4

   TITEL  = PAW_PBE O 08Apr2002
   POMASS =   16.000; ZVAL   =    6.000    mass and valenz
   ENMAX  =  400.000; ENMIN  =  300.000 eV

 POTCAR:    PAW_PBE Si 05Jan2001
   VRHFIN =Si: s2p2

   TITEL  = PAW_PBE Si 05Jan2001
   POMASS =   28.085; ZVAL   =    4.000    mass and valenz
   ENMAX  =  245.345; ENMIN  =  184.009 eV

 Optimization of the real space projectors (new method)

 maximal supplied QI-value         = 19.84
 optimisation between [QCUT,QGAM] = [ 10.12, 20.44] = [ 28.68,116.96] Ry
 Optimized for a Real-space Cutoff    1.23 Angstroem

   l    n(q)    QCUT    max X(q) W(low)/X(q) W(high)/X(q)  e(spline)
   0      7    10.119   176.870    0.49E-04    0.18E-03    0.39E-07
   0      7    10.119   105.762    0.46E-04    0.18E-03    0.38E-07
   1      7    10.119    55.370    0.30E-03    0.37E-03    0.12E-06
   1      7    10.119    20.208    0.27E-03    0.35E-03    0.11E-06
 Optimization of the real space projectors (new method)

[...]

   l    n(q)    QCUT    max X(q) W(low)/X(q) W(high)/X(q)  e(spline)
   0      8    10.150    20.381    0.22E-03    0.32E-03    0.29E-06
   0      8    10.150    15.268    0.23E-03    0.35E-03    0.30E-06
   1      8    10.150     5.964    0.46E-03    0.53E-03    0.21E-06
   1      8    10.150     5.382    0.38E-03    0.45E-03    0.19E-06
 Optimization of the real space projectors (new method)

 maximal supplied QI-value         = 19.84
 optimisation between [QCUT,QGAM] = [ 10.12, 20.44] = [ 28.68,116.96] Ry
 Optimized for a Real-space Cutoff    1.23 Angstroem

   l    n(q)    QCUT    max X(q) W(low)/X(q) W(high)/X(q)  e(spline)
   0      7    10.119   159.560    0.56E-04    0.22E-03    0.45E-07
   0      7    10.119   115.863    0.56E-04    0.21E-03    0.45E-07
   1      7    10.119    88.339    0.34E-03    0.49E-03    0.11E-06
   1      7    10.119    48.592    0.33E-03    0.48E-03    0.11E-06
  PAW_PBE Al 04Jan2001                  :
  PAW_PBE C 08Apr2002                   :
  PAW_PBE H 15Jun2001                   :
  PAW_PBE O 08Apr2002                   :
  PAW_PBE Si 05Jan2001                  :

 POSCAR: Al  C  H  O Si
  positions in cartesian coordinates
 exchange correlation table for  LEXCH =        8
   RHO(1)=    0.500       N(1)  =     2000
   RHO(2)=  100.500       N(2)  =     4000

 ion  position               nearest neighbor table
   1  0.566  0.665  0.567-  44 1.71  72 1.71  67 1.72  43 1.90  95 3.14  98 3.15 103 3.17
   2  0.575  0.794  0.418-   4 1.09   3 1.09   5 1.10  43 1.49
   3  0.619  0.880  0.391-   2 1.09
   4  0.616  0.748  0.396-   2 1.09
   5  0.486  0.750  0.398-   2 1.10
   6  0.019  0.333  0.836- 104 1.62  88 1.62
   7  0.209  0.420  0.538-  82 1.61  95 1.63
   8  0.550  0.094  0.204- 106 1.62 111 1.62
   9  0.880  0.761  0.866-  79 1.62 105 1.62
  10  0.453  0.546  0.799-  83 1.62 103 1.62
  11  0.125  0.878  0.133-  86 1.62  84 1.62
  12  0.094  0.547  0.802-  94 1.62  88 1.62
  13  0.419  0.210  0.463- 112 1.61  99 1.63
  14  0.765  0.881  0.137-  81 1.62  97 1.62
  15  0.217  0.783  0.535-  92 1.61 100 1.62
  16  0.902  0.100  0.124-  81 1.63  90 1.63
  17  0.242  0.121  0.867- 101 1.62 107 1.62
  18  0.878  0.439  0.453-  91 1.62  93 1.62
  19  0.436  0.869  0.547- 110 1.62  92 1.64
  20  0.984  0.316  0.167-  80 1.62  90 1.62
  21  0.652  0.015  0.512- 110 1.61  89 1.63
  22  0.004  0.653  0.500- 100 1.62  93 1.62
  23  0.336  0.314  0.166-  87 1.62 108 1.62
  24  0.985  0.663  0.162-  96 1.62  84 1.62
  25  0.355  0.356  0.500-  99 1.61  95 1.63
  26  0.687  0.016  0.172- 106 1.62  81 1.63
  27  0.668  0.984  0.835-  78 1.62 109 1.63
  28  0.998  0.345  0.504-  91 1.61  82 1.62
  29  0.786  0.221  0.463-  89 1.60  91 1.62
  30  0.339  0.019  0.164- 111 1.62  86 1.62
  31  0.908  0.451  0.205-  80 1.62  96 1.62
  32  0.315  0.335  0.836- 107 1.62  83 1.62
  33  0.456  0.911  0.795-  78 1.62  85 1.62
  34  0.075  0.665  0.667- 100 1.63  94 1.63
  35  0.663  0.068  0.339-  89 1.64 106 1.64
  36  0.000  0.743  0.999-  84 1.63  79 1.63
  37  0.595  0.909  0.670- 110 1.60  78 1.65
  38  0.937  0.602  0.331-  96 1.63  93 1.63
  39  0.258  0.257  0.001-  87 1.63 107 1.63
  40  0.408  0.337  0.333- 108 1.63  99 1.63
  41  0.790  0.567  0.462-  93 1.61  98 1.62
  42  0.737  0.997  0.004-  81 1.63 109 1.63
  43  0.581  0.799  0.517-   2 1.49 110 1.70   1 1.90
  44  0.603  0.690  0.678- 103 1.60   1 1.71
  45  0.261  0.001  0.999-  86 1.63 101 1.63
  46  0.070  0.407  0.670-  88 1.63  82 1.63
  47  0.403  0.069  0.333- 112 1.63 111 1.63
  48  0.332  0.402  0.668-  83 1.63  95 1.64
  49  0.750  0.744  0.005-  97 1.62 105 1.62
  50  0.550  0.453  0.199- 108 1.62 102 1.62
  51  0.880  0.120  0.873- 109 1.62 104 1.62
  52  0.331  0.929  0.667-  92 1.62  85 1.63
  53  0.570  0.427  0.456-  99 1.63  98 1.64
  54  0.666  0.590  0.334- 102 1.62  98 1.64
  55  0.937  0.332  0.335-  91 1.63  80 1.63
  56  0.351  0.998  0.499-  92 1.62 112 1.62
  57  0.316  0.982  0.834-  85 1.62 101 1.62
  58  0.907  0.803  0.131-  97 1.63  84 1.63
  59  0.237  0.766  0.790-  85 1.63  94 1.63
  60  0.121  0.237  0.136-  90 1.62  87 1.62
[...]
  68  0.528  0.765  0.809-  78 1.62 103 1.65
  69  0.770  0.532  0.211-  96 1.63 102 1.63
  70  0.132  0.563  0.542- 100 1.63  82 1.64
  71  0.471  0.234  0.212- 111 1.63 108 1.63
  72  0.657  0.646  0.501-  98 1.59   1 1.71
  73  0.769  0.232  0.217- 106 1.63  80 1.63
  74  0.662  0.681  0.845- 105 1.61 103 1.63
  75  0.021  0.688  0.833-  94 1.62  79 1.62
  76  0.099  0.196  0.876- 104 1.63 107 1.63
  77  0.689  0.668  0.170-  97 1.62 102 1.62
  78  0.561  0.891  0.778-  33 1.62  68 1.62  27 1.62  37 1.65 103 3.04 109 3.08
  79  0.000  0.774  0.894-   9 1.62  75 1.62  36 1.63  65 1.63 105 3.11  94 3.11 101 3.13
  80  0.899  0.333  0.231-  31 1.62  20 1.62  55 1.63  73 1.63  91 3.08  90 3.10
  81  0.773  0.999  0.108-  14 1.62  26 1.63  16 1.63  42 1.63 106 3.11 109 3.13  97 3.13
  82  0.104  0.435  0.564-   7 1.61  28 1.62  46 1.63  70 1.64  91 3.06  95 3.11  88 3.13 100 3.14

  83  0.334  0.439  0.772-  10 1.62  32 1.62  48 1.63  62 1.64 107 3.11  95 3.11  88 3.14
  84  0.004  0.772  0.106-  24 1.62  11 1.62  36 1.63  58 1.63  96 3.09  97 3.11  86 3.12
  85  0.334  0.896  0.771-  57 1.62  33 1.62  59 1.63  52 1.63 101 3.10  92 3.11  94 3.13
  86  0.231  0.999  0.105-  11 1.62  30 1.62  45 1.63  63 1.63 111 3.10  84 3.12  87 3.13 101 3.14

[...]

 112  0.435  0.105  0.437-  13 1.61  56 1.62  47 1.63  61 1.64 111 3.11  92 3.12  99 3.12  89 3.13

  LATTYP: Found a triclinic cell.
 ALAT       =    13.7322043366
 B/A-ratio  =     0.9994204432
 C/A-ratio  =     1.0843400083
 COS(alpha) =     0.0000550690
 COS(beta)  =     0.0002592819
 COS(gamma) =     0.4999019569

  Lattice vectors:

 A1 = (   6.8687391400, -11.8909148200,  -0.0018197300)
 A2 = (  -6.8608326700, -11.8862902600,  -0.0004082900)
 A3 = (   0.0015106500,  -0.0013072700, -14.8903784300)

Analysis of symmetry for initial positions (statically):
 Subroutine PRICEL returns:
 Original cell was already a primitive cell.

 Routine SETGRP: Setting up the symmetry group for a
 triclinic supercell.

 Subroutine GETGRP returns: Found  1 space group operations
 (whereof  1 operations were pure point group operations)
 out of a pool of  2 trial point group operations.

The static configuration has the point symmetry C_1 .

Analysis of symmetry for dynamics (positions and initial velocities):
 Subroutine PRICEL returns:
 Original cell was already a primitive cell.

 Routine SETGRP: Setting up the symmetry group for a
 triclinic supercell.

 Subroutine GETGRP returns: Found  1 space group operations
 (whereof  1 operations were pure point group operations)
 out of a pool of  2 trial point group operations.

The dynamic configuration has the point symmetry C_1 .

 Subroutine INISYM returns: Found  1 space group operations
 (whereof  1 operations are pure point group operations),
 and found     1 'primitive' translations

 KPOINTS: KPOINTS created by Atomic Simulation Env

Automatic generation of k-mesh.
Space group operators:
 irot       det(A)        alpha          n_x          n_y          n_z        tau_x        tau_y        tau_z
    1     1.000000     0.000000     1.000000     0.000000     0.000000     0.000000     0.000000     0.000000

 Subroutine IBZKPT returns following result:

 Found      1 irreducible k-points:

 Following reciprocal coordinates:
            Coordinates               Weight
  0.000000  0.000000  0.000000      1.000000

 Following cartesian coordinates:
            Coordinates               Weight
  0.000000  0.000000  0.000000      1.000000

 I would recommend the setting:
   dimension x,y,z NGX =    67 NGY =   67 NGZ =   73
 SYSTEM =  unknown system
 POSCAR =  Al  C  H  O Si

 Startparameter for this run:
   NWRITE =      2    write-flag & timer
   PREC   = normal    normal or accurate (medium, high low for compatibility)
   ISTART =      0    job   : 0-new  1-cont  2-samecut
   ICHARG =      2    charge: 1-file 2-atom 10-const
   ISPIN  =      1    spin polarized calculation?
   LNONCOLLINEAR =      F non collinear calculations
   LSORBIT =      F    spin-orbit coupling
   INIWAV =      1    electr: 0-lowe 1-rand  2-diag
   LASPH  =      F    aspherical Exc in radial PAW
   METAGGA=      F    non-selfconsistent MetaGGA calc.

 Electronic Relaxation 1
   ENCUT  =  400.0 eV  29.40 Ry    5.42 a.u.  22.39 22.39 24.28*2*pi/ulx,y,z
   ENINI  =  400.0     initial cutoff
   ENAUG  =  644.9 eV  augmentation charge cutoff
   NELM   =     60;   NELMIN=  2; NELMDL= -5     # of ELM steps
   EDIFF  = 0.1E-05   stopping-criterion for ELM
   LREAL  =      T    real-space projection
   NLSPLINE    = F    spline interpolate recip. space projectors
   LCOMPAT=      F    compatible to vasp.4.4
   GGA_COMPAT  = T    GGA compatible to vasp.4.4-vasp.4.6
   LMAXPAW     = -100 max onsite density
   LMAXMIX     =    2 max onsite mixed and CHGCAR
   VOSKOWN=      0    Vosko Wilk Nusair interpolation
   ROPT   =   -0.00050  -0.00050  -0.00050  -0.00050
   ROPT   =   -0.00050
 Ionic relaxation
   EDIFFG = 0.1E-04   stopping-criterion for IOM
   NSW    =      0    number of steps for IOM
   NBLOCK =      1;   KBLOCK =      1    inner block; outer block
   IBRION =     -1    ionic relax: 0-MD 1-quasi-New 2-CG
[...]
    -0.001510650  0.001307270 14.890378430     0.000006902 -0.000006291  0.067157462

  length of vectors
    13.729572661 13.732204337 14.890378564     0.084130313  0.084114191  0.067157462

 FORCES acting on ions
    electron-ion (+dipol)            ewald-force                    non-local-force                 convergence-correction
   -.543E+02 -.145E+02 0.200E+01   0.558E+02 0.105E+02 -.657E+00   -.144E+01 0.399E+01 -.134E+01   0.104E-03 -.183E-03 0.162E-03
   -.119E+02 0.163E+02 0.204E+03   0.121E+02 -.169E+02 -.213E+03   -.255E+00 0.575E+00 0.897E+01   0.102E-03 -.103E-03 -.966E-04
   -.186E+02 -.251E+02 0.466E+02   0.188E+02 0.306E+02 -.489E+02   -.186E+00 -.546E+01 0.229E+01   0.151E-04 -.615E-04 0.281E-04
   -.348E+02 0.614E+01 0.449E+02   0.396E+02 -.910E+01 -.467E+02   -.485E+01 0.296E+01 0.185E+01   -.620E-05 -.438E-05 0.509E-04
   0.523E+02 0.347E+02 0.580E+02   -.572E+02 -.375E+02 -.596E+02   0.485E+01 0.281E+01 0.163E+01   0.537E-04 -.128E-06 0.229E-04
   0.231E+03 -.631E+00 -.171E+01   -.251E+03 0.711E+00 0.167E+01   0.202E+02 -.791E-01 0.414E-01   -.168E-03 -.127E-04 -.988E-04
   -.841E+01 0.147E+03 0.184E+03   0.993E+01 -.156E+03 -.201E+03   -.151E+01 0.904E+01 0.170E+02   0.887E-04 -.258E-03 0.116E-03
   0.413E+01 0.111E+03 0.212E+03   -.417E+01 -.116E+03 -.229E+03   0.448E-01 0.523E+01 0.172E+02   -.914E-04 -.695E-04 -.264E-03
   0.716E+00 0.129E+03 0.213E+03   -.148E+01 -.135E+03 -.233E+03   0.765E+00 0.608E+01 0.192E+02   -.773E-04 -.411E-04 -.950E-04
   -.120E+03 0.707E+02 -.175E+03   0.126E+03 -.740E+02 0.189E+03   -.612E+01 0.334E+01 -.148E+02   -.419E-04 -.677E-04 -.111E-03
   -.121E+03 0.685E+02 -.190E+03   0.128E+03 -.724E+02 0.208E+03   -.678E+01 0.391E+01 -.176E+02   0.233E-03 -.149E-03 -.267E-04
   0.112E+03 0.633E+02 -.207E+03   -.117E+03 -.664E+02 0.225E+03   0.520E+01 0.319E+01 -.184E+02   0.764E-04 -.157E-03 0.327E-04
   0.134E+03 0.698E+02 -.197E+03   -.143E+03 -.733E+02 0.214E+03   0.874E+01 0.354E+01 -.165E+02   -.282E-03 0.161E-03 0.496E-04
   0.943E+02 0.556E+02 -.184E+03   -.990E+02 -.584E+02 0.201E+03   0.463E+01 0.280E+01 -.178E+02   -.473E-04 -.291E-04 -.284E-03
   0.102E+03 -.525E+02 0.191E+03   -.106E+03 0.531E+02 -.209E+03   0.309E+01 -.641E+00 0.178E+02   -.185E-03 -.121E-03 0.686E-04
   -.686E+02 0.316E+02 -.132E+03   0.808E+02 -.384E+02 0.142E+03   -.122E+02 0.681E+01 -.103E+02   -.764E-04 0.916E-04 -.319E-03
   -.114E+03 -.684E+02 0.203E+03   0.120E+03 0.723E+02 -.221E+03   -.591E+01 -.387E+01 0.181E+02   0.832E-04 0.158E-03 -.299E-05
   0.609E+02 0.290E+02 -.137E+03   -.719E+02 -.345E+02 0.147E+03   0.110E+02 0.554E+01 -.104E+02   -.650E-04 0.106E-03 -.191E-04
   0.239E+02 0.691E+02 0.103E+03   -.255E+02 -.841E+02 -.114E+03   0.161E+01 0.150E+02 0.103E+02   -.274E-04 -.762E-04 0.259E-03
   -.107E+03 -.203E+03 0.153E+02   0.116E+03 0.221E+03 -.168E+02   -.930E+01 -.181E+02 0.151E+01   -.474E-04 0.164E-03 -.116E-03
   -.209E+03 -.741E+02 -.813E+02   0.228E+03 0.803E+02 0.862E+02   -.190E+02 -.618E+01 -.481E+01   0.136E-03 0.103E-03 0.232E-03
   0.127E+03 -.206E+03 -.987E+01   -.138E+03 0.225E+03 0.105E+02   0.114E+02 -.191E+02 -.657E+00   -.190E-03 0.313E-04 -.299E-04
   0.108E+03 -.196E+03 0.127E+02   -.117E+03 0.213E+03 -.137E+02   0.939E+01 -.175E+02 0.102E+01   0.159E-05 -.990E-04 0.769E-04
   -.235E+03 0.187E+02 0.269E+02   0.256E+03 -.209E+02 -.298E+02   -.209E+02 0.213E+01 0.294E+01   0.263E-03 0.352E-05 0.398E-04
   0.104E+03 0.183E+03 -.620E+01   -.115E+03 -.198E+03 0.662E+01   0.104E+02 0.154E+02 -.417E+00   -.151E-03 -.169E-03 0.145E-03
   0.108E+03 0.186E+03 0.151E+02   -.117E+03 -.204E+03 -.143E+02   0.900E+01 0.179E+02 -.745E+00   -.182E-03 0.292E-04 -.365E-03
   0.116E+03 -.215E+03 0.676E+01   -.126E+03 0.234E+03 -.848E+01   0.989E+01 -.196E+02 0.172E+01   -.168E-03 0.205E-03 0.931E-04
   -.110E+03 0.215E+03 -.206E+02   0.120E+03 -.235E+03 0.233E+02   -.102E+02 0.202E+02 -.271E+01   0.195E-03 -.588E-04 0.169E-03
   -.869E+02 0.388E+02 -.199E+03   0.901E+02 -.391E+02 0.215E+03   -.319E+01 0.360E+00 -.158E+02   0.120E-03 0.186E-03 0.946E-04
   -.121E+03 0.189E+03 0.216E+02   0.132E+03 -.205E+03 -.235E+02   -.113E+02 0.169E+02 0.199E+01   0.101E-03 -.198E-03 -.187E-03
   -.101E+03 -.575E+02 0.199E+03   0.105E+03 0.598E+02 -.215E+03   -.389E+01 -.230E+01 0.158E+02   0.641E-04 0.154E-03 0.124E-04
   -.229E+03 -.818E+01 -.544E+01   0.249E+03 0.974E+01 0.640E+01   -.199E+02 -.157E+01 -.956E+00   0.556E-04 0.898E-04 -.199E-03
   0.325E+01 -.149E+03 -.181E+03   -.365E+01 0.159E+03 0.194E+03   0.399E+00 -.930E+01 -.134E+02   0.151E-03 0.127E-03 0.298E-03
   0.243E+03 0.420E+01 -.654E+01   -.261E+03 -.442E+01 0.660E+01   0.184E+02 0.223E+00 -.593E-01   -.416E-05 -.146E-03 0.261E-04
   -.113E+03 0.182E+03 0.116E+02   0.122E+03 -.201E+03 -.114E+02   -.895E+01 0.187E+02 -.239E+00   -.803E-04 0.160E-03 -.619E-04
   -.112E+03 0.204E+03 0.948E+01   0.119E+03 -.220E+03 -.983E+01   -.772E+01 0.153E+02 0.354E+00   0.172E-03 -.363E-05 0.174E-04
   -.137E+03 -.168E+03 -.131E+02   0.152E+03 0.174E+03 0.169E+02   -.150E+02 -.651E+01 -.380E+01   0.126E-03 0.105E-04 0.378E-03
   -.125E+03 -.219E+03 0.122E+01   0.135E+03 0.238E+03 -.145E+01   -.993E+01 -.188E+02 0.230E+00   0.551E-05 0.538E-04 0.332E-04
   -.118E+03 -.203E+03 0.393E+01   0.127E+03 0.219E+03 -.412E+01   -.866E+01 -.155E+02 0.185E+00   -.311E-04 -.457E-04 -.180E-03
   0.244E+03 -.522E+01 0.155E+01   -.263E+03 0.656E+01 -.125E+01   0.193E+02 -.133E+01 -.301E+00   -.538E-04 -.820E-04 0.194E-03
   0.309E+01 -.106E+03 -.206E+03   -.423E+01 0.109E+03 0.222E+03   0.115E+01 -.313E+01 -.161E+02   0.966E-05 0.904E-04 0.767E-04
   0.247E+03 0.187E+01 0.371E+01   -.266E+03 -.322E+01 -.384E+01   0.197E+02 0.135E+01 0.121E+00   -.262E-03 0.823E-04 -.279E-03
   -.142E+03 -.105E+02 0.401E+02   0.155E+03 0.439E+01 -.274E+02   -.122E+02 0.614E+01 -.127E+02   0.255E-03 -.251E-03 0.838E-04
   -.231E+03 -.106E+02 0.555E+02   0.246E+03 0.196E+02 -.645E+02   -.148E+02 -.891E+01 0.897E+01   0.136E-03 -.301E-04 -.582E-04
   -.237E+03 -.365E+01 0.594E+01   0.255E+03 0.380E+01 -.631E+01   -.183E+02 -.149E+00 0.372E+00   0.251E-03 -.834E-04 -.124E-04
   0.130E+03 0.203E+03 -.109E+02   -.141E+03 -.219E+03 0.111E+02   0.111E+02 0.155E+02 -.166E+00   0.610E-04 -.130E-03 0.893E-04
   0.131E+03 0.209E+03 0.471E+01   -.141E+03 -.227E+03 -.512E+01   0.943E+01 0.181E+02 0.414E+00   -.158E-03 0.520E-04 -.774E-04
   -.134E+03 0.212E+03 0.329E+00   0.143E+03 -.230E+03 -.161E+01   -.960E+01 0.184E+02 0.128E+01   0.828E-05 -.722E-04 0.172E-04
   0.103E+03 0.202E+03 0.841E+01   -.110E+03 -.217E+03 -.870E+01   0.706E+01 0.153E+02 0.282E+00   -.394E-04 0.109E-03 -.176E-03
   0.998E+02 -.521E+02 0.217E+03   -.104E+03 0.549E+02 -.236E+03   0.454E+01 -.278E+01 0.189E+02   0.755E-04 -.650E-04 0.177E-03
   0.116E+03 -.692E+02 0.190E+03   -.122E+03 0.725E+02 -.206E+03   0.590E+01 -.335E+01 0.158E+02   -.244E-03 0.125E-03 -.989E-04
   0.135E+03 -.213E+03 -.555E+01   -.146E+03 0.230E+03 0.624E+01   0.113E+02 -.169E+02 -.683E+00   0.960E-04 -.222E-04 0.173E-03
   -.763E+02 0.476E+02 -.170E+03   0.913E+02 -.558E+02 0.181E+03   -.150E+02 0.822E+01 -.108E+02   0.110E-04 -.243E-04 0.101E-03
   0.106E+03 -.180E+03 -.442E+00   -.117E+03 0.196E+03 0.211E+01   0.105E+02 -.155E+02 -.167E+01   0.176E-03 -.850E-04 0.143E-03
   -.257E+03 0.136E+01 0.167E+01   0.279E+03 -.220E+01 -.176E+01   -.220E+02 0.841E+00 0.881E-01   0.121E-04 0.144E-03 0.640E-04
   0.236E+03 -.157E+01 -.453E+01   -.256E+03 0.119E+01 0.365E+01   0.192E+02 0.372E+00 0.878E+00   -.225E-03 0.830E-04 -.706E-05
   -.116E+03 -.198E+03 -.425E+01   0.126E+03 0.216E+03 0.514E+01   -.104E+02 -.174E+02 -.880E+00   0.273E-03 0.109E-03 0.239E-03
   -.892E+01 -.893E+02 -.157E+03   0.948E+01 0.104E+03 0.171E+03   -.556E+00 -.148E+02 -.139E+02   0.144E-03 -.344E-04 -.986E-04
   -.714E+02 0.431E+02 -.153E+03   0.849E+02 -.511E+02 0.164E+03   -.135E+02 0.806E+01 -.112E+02   0.186E-03 -.131E-03 0.121E-03
   -.230E+01 -.121E+03 -.201E+03   0.250E+01 0.126E+03 0.220E+03   -.192E+00 -.535E+01 -.187E+02   0.103E-04 0.590E-04 -.970E-04
[...]
   0.578E+02 0.372E+02 -.505E+02   -.577E+02 -.362E+02 0.504E+02   -.149E+00 -.948E+00 0.322E-01   -.103E-03 -.425E-04 0.118E-03
   0.581E+02 -.371E+02 0.358E+02   -.581E+02 0.365E+02 -.357E+02   0.344E-01 0.628E+00 -.169E+00   -.107E-03 -.403E-04 -.100E-04
   -.554E+02 -.407E+02 0.464E+02   0.549E+02 0.404E+02 -.460E+02   0.437E+00 0.255E+00 -.373E+00   0.125E-03 0.780E-04 0.128E-04
   0.551E+02 -.182E+02 0.543E+02   -.548E+02 0.185E+02 -.531E+02   -.289E+00 -.238E+00 -.122E+01   0.303E-04 -.483E-04 0.552E-04
   -.530E+02 0.541E+02 -.438E+02   0.540E+02 -.532E+02 0.400E+02   -.915E+00 -.930E+00 0.375E+01   0.450E-04 -.434E-04 -.194E-03
   0.644E+02 -.282E+02 0.479E+02   -.636E+02 0.284E+02 -.472E+02   -.728E+00 -.163E+00 -.630E+00   -.159E-03 0.282E-04 -.140E-03
   -.108E+02 0.693E+02 0.493E+02   0.990E+01 -.696E+02 -.490E+02   0.856E+00 0.350E+00 -.261E+00   -.273E-04 -.148E-04 -.136E-03
   0.608E+01 0.591E+02 0.523E+02   -.605E+01 -.584E+02 -.525E+02   -.324E-01 -.692E+00 0.219E+00   -.106E-03 0.329E-05 -.215E-03
   -.628E+02 -.294E+02 0.458E+02   0.625E+02 0.296E+02 -.457E+02   0.363E+00 -.192E+00 -.924E-01   0.490E-04 0.676E-04 -.139E-03
   0.551E+02 -.381E+02 0.494E+02   -.549E+02 0.378E+02 -.487E+02   -.121E+00 0.296E+00 -.678E+00   -.317E-04 0.127E-04 0.557E-04
   0.586E+02 -.438E+02 0.430E+02   -.579E+02 0.432E+02 -.428E+02   -.705E+00 0.556E+00 -.173E+00   -.146E-03 0.119E-03 -.120E-03
   -.579E+02 -.401E+02 -.272E+01   0.554E+02 0.424E+02 0.337E+01   0.247E+01 -.221E+01 -.650E+00   0.494E-04 0.800E-04 0.215E-03
   -.468E+01 0.636E+02 0.520E+02   0.407E+01 -.631E+02 -.515E+02   0.614E+00 -.498E+00 -.516E+00   0.805E-06 -.762E-04 -.140E-03
   0.725E+02 0.257E+02 -.485E+02   -.723E+02 -.251E+02 0.478E+02   -.133E+00 -.593E+00 0.656E+00   -.198E-03 0.111E-03 0.456E-04
   0.530E+00 0.569E+01 0.236E+02   -.568E-13 -.185E-12 -.149E-12   -.516E+00 -.572E+01 -.236E+02   0.859E-03 0.229E-03 0.102E-02

 POSITION                                       TOTAL-FORCE (eV/Angst)
      3.20049      7.90745      8.44558        -0.023814     -0.009220      0.007854
      2.43473      9.44067      6.22221        -0.027817     -0.012198      0.017610
      2.45922     10.45994      5.82537        -0.017672      0.002557     -0.002041
      3.32396      8.89172      5.89864        -0.008382     -0.016357     -0.001833
      1.51630      8.91749      5.92998        -0.006051      0.000714      0.021726
     -2.02870      3.96346     12.44213         0.016132      0.000837     -0.000408
     -0.01175      4.99372      8.00570        -0.001014      0.009013      0.012181
      6.90749      1.11752      3.04276         0.001127      0.007933      0.013763
      6.85697      9.05039     12.89742        -0.000176      0.008859      0.012954
      2.46996      6.49723     11.89486        -0.005913      0.005248     -0.014733
     -4.31401     10.44106      1.97822        -0.007121      0.004788     -0.011616
     -2.46441      6.51060     11.94552         0.007418      0.005124     -0.012563
      4.30245      2.50132      6.89803         0.009814      0.005713     -0.013964
      4.45326     10.47833      2.04079         0.006553      0.003485     -0.011941
     -2.39651      9.31267      7.96555         0.007141     -0.003297      0.013244
     11.70008      1.18429      1.83974        -0.001383      0.001082     -0.009920
      2.49020      1.44176     12.90586        -0.005510     -0.002446      0.012345
      9.04169      5.21254      6.74487         0.002311      0.001385     -0.012622
      0.01153     10.33256      8.14731         0.002141      0.005130      0.007135
     11.34653      3.74894      2.47910        -0.006709     -0.011832      0.000424
      8.84329      0.17592      7.62099        -0.010907     -0.008182     -0.005021
     -4.42903      7.76560      7.44745         0.007023     -0.012629     -0.000632
      2.45961      3.73460      2.46710         0.006693     -0.012517      0.000352
      8.97249      7.87705      2.41550        -0.014432     -0.001020      0.001554
      2.42360      4.23135      7.44463         0.007921      0.009547     -0.000842
      9.32507      0.19063      2.56631         0.007829      0.011145      0.001917
      2.41221     11.69938     12.43157         0.007230     -0.013699     -0.001544
     11.33428      4.09567      7.51064        -0.007712      0.012692     -0.000278
      9.27061      2.62002      6.89613        -0.003493      0.007450     -0.014054
      4.51899      0.22752      2.44022        -0.007343      0.012363      0.000237
      9.36388      5.35991      3.05723        -0.005346     -0.004662      0.015617
      2.02965      3.98066     12.44752        -0.013575      0.000014      0.001711
      0.00225     10.83505     11.83346         0.002882     -0.009091     -0.015245
     -3.54027      7.91327      9.93622         0.016165      0.000177     -0.001088
      8.64071      0.80150      5.04542        -0.005618      0.007385     -0.000864
     -5.10219      8.83648     14.88245        -0.006483      0.014632      0.000300
      1.92008     10.80780      9.98105        -0.005520     -0.012032      0.000410
      8.73010      7.15080      4.93469        -0.009272     -0.011125      0.002503
      1.78288      3.05529      0.01456        -0.006410     -0.013875      0.003536
      3.28859      4.00874      4.95236         0.015221      0.002178      0.002511
      6.94201      6.74376      6.87412         0.003001     -0.006901     -0.014050
      3.26921     11.84688      0.05473         0.015983      0.000398     -0.000907
      2.48912      9.50434      7.70621        -0.009964     -0.005641      0.006959
      3.53474      8.20318     10.09176        -0.013570      0.003901     -0.000941
      3.57993      0.00624     14.87954        -0.015481      0.000107      0.000609
     -1.82886      4.83650      9.97038         0.009302      0.014312     -0.000816
      5.06555      0.81851      4.95266         0.009420      0.011659     -0.000258
      1.79333      4.77634      9.94732        -0.009259      0.009864      0.002500
      5.18449      8.83893      0.07272         0.008291      0.012712      0.000684
      4.44888      5.37938      2.96367         0.006803     -0.004992      0.013059
     11.25294      1.42568     13.00128         0.008668     -0.004917      0.012766
     -1.84178     11.04289      9.92873         0.004886     -0.012248     -0.000151
      4.89524      5.07931      6.79354        -0.004075      0.001830     -0.010635
      5.09340      7.01629      4.97147         0.005396     -0.009957      0.001289
     10.58299      3.94369      4.98164        -0.013854     -0.001663      0.000367
     -2.04497     11.87165      7.43326         0.012891      0.000875      0.000617
     -2.40678     11.67707     12.41785        -0.006223     -0.013053      0.001714
      6.93470      9.54195      1.94733        -0.000168     -0.002913     -0.010345
     -2.01387      9.10993     11.76745        -0.000763      0.001121     -0.011024
      0.03548      2.82298      2.01972         0.001114     -0.007513     -0.012357
[...]
      5.35993      6.63267      6.54312        -0.010394     -0.019511     -0.027121
      3.72557      3.97701      6.52595         0.024410      0.017401     -0.021520
     -3.10325      7.90700      8.36823         0.024284     -0.016467      0.020414
      3.13339      0.01530     13.31505        -0.021629     -0.018543      0.020186
      5.34137      6.65935      3.40902         0.021237     -0.005940      0.024956
      3.10917      7.96242     11.61446        -0.018000      0.016215     -0.020899
     -1.54675      2.71129     13.35007         0.024971     -0.010132      0.019810
      5.31093      9.17789     13.37937        -0.003768      0.028488      0.020333
      8.46505      1.22719      3.46893         0.005907      0.021271      0.026783
      1.57058      2.70761     13.32890        -0.026945     -0.010126      0.020207
      3.76506      3.97384      3.39783         0.025253     -0.015661      0.019216
      3.72383     11.88521     13.37614         0.024036     -0.016770      0.019673
      1.55297     10.73182      8.42150        -0.026577     -0.014398      0.007009
      5.33014      1.24645      3.40234        -0.003888      0.027524      0.022126
      5.24348      1.24950      6.51216         0.030359      0.011536     -0.021143
    total drift:                                0.014277     -0.031445     -0.026713

  FREE ENERGIE OF THE ION-ELECTRON SYSTEM (eV)
  free  energy   TOTEN  =      -882.73961965 eV

  energy  without entropy=     -882.73961965  energy(sigma->0) =     -882.73961965