 vasp.5.4.1 05Feb16 (build Feb 08 2018 09:21:51) complex

 executed on             LinuxIFC date 2019.11.13  15:47:47

 INCAR:
 POTCAR:    PAW_PBE Al 04Jan2001
 POTCAR:    PAW_PBE C 08Apr2002
 POTCAR:    PAW_PBE H 15Jun2001
 POTCAR:    PAW_PBE O 08Apr2002
 POTCAR:    PAW_PBE Si 05Jan2001
 POTCAR:    PAW_PBE Al 04Jan2001
   VRHFIN =Al: s2p1

   TITEL  = PAW_PBE Al 04Jan2001
   POMASS =   26.981; ZVAL   =    3.000    mass and valenz
   ENMAX  =  240.300; ENMIN  =  180.225 eV

 POTCAR:    PAW_PBE C 08Apr2002
   VRHFIN =C: s2p2

   TITEL  = PAW_PBE C 08Apr2002
   POMASS =   12.011; ZVAL   =    4.000    mass and valenz
   ENMAX  =  400.000; ENMIN  =  300.000 eV

 POTCAR:    PAW_PBE H 15Jun2001
   VRHFIN =H: ultrasoft test

   TITEL  = PAW_PBE H 15Jun2001
   POMASS =    1.000; ZVAL   =    1.000    mass and valenz
   ENMAX  =  250.000; ENMIN  =  200.000 eV

 POTCAR:    PAW_PBE O 08Apr2002
   VRHFIN =O: s2p4

   TITEL  = PAW_PBE O 08Apr2002
   POMASS =   16.000; ZVAL   =    6.000    mass and valenz
   ENMAX  =  400.000; ENMIN  =  300.000 eV

 POTCAR:    PAW_PBE Si 05Jan2001
   VRHFIN =Si: s2p2

   TITEL  = PAW_PBE Si 05Jan2001
   POMASS =   28.085; ZVAL   =    4.000    mass and valenz
   ENMAX  =  245.345; ENMIN  =  184.009 eV

 Optimization of the real space projectors (new method)

 maximal supplied QI-value         = 19.84
 optimisation between [QCUT,QGAM] = [ 10.12, 20.44] = [ 28.68,116.96] Ry
 Optimized for a Real-space Cutoff    1.23 Angstroem

   l    n(q)    QCUT    max X(q) W(low)/X(q) W(high)/X(q)  e(spline)
   0      7    10.119   176.870    0.49E-04    0.18E-03    0.39E-07
   0      7    10.119   105.762    0.46E-04    0.18E-03    0.38E-07
   1      7    10.119    55.370    0.30E-03    0.37E-03    0.12E-06
   1      7    10.119    20.208    0.27E-03    0.35E-03    0.11E-06
 Optimization of the real space projectors (new method)

[...]

   l    n(q)    QCUT    max X(q) W(low)/X(q) W(high)/X(q)  e(spline)
   0      8    10.150    20.381    0.22E-03    0.32E-03    0.29E-06
   0      8    10.150    15.268    0.23E-03    0.35E-03    0.30E-06
   1      8    10.150     5.964    0.46E-03    0.53E-03    0.21E-06
   1      8    10.150     5.382    0.38E-03    0.45E-03    0.19E-06
 Optimization of the real space projectors (new method)

 maximal supplied QI-value         = 19.84
 optimisation between [QCUT,QGAM] = [ 10.12, 20.44] = [ 28.68,116.96] Ry
 Optimized for a Real-space Cutoff    1.23 Angstroem

   l    n(q)    QCUT    max X(q) W(low)/X(q) W(high)/X(q)  e(spline)
   0      7    10.119   159.560    0.56E-04    0.22E-03    0.45E-07
   0      7    10.119   115.863    0.56E-04    0.21E-03    0.45E-07
   1      7    10.119    88.339    0.34E-03    0.49E-03    0.11E-06
   1      7    10.119    48.592    0.33E-03    0.48E-03    0.11E-06
  PAW_PBE Al 04Jan2001                  :
  PAW_PBE C 08Apr2002                   :
  PAW_PBE H 15Jun2001                   :
  PAW_PBE O 08Apr2002                   :
  PAW_PBE Si 05Jan2001                  :

 POSCAR: Al  C  H  O Si
  positions in cartesian coordinates
 exchange correlation table for  LEXCH =        8
   RHO(1)=    0.500       N(1)  =     2000
   RHO(2)=  100.500       N(2)  =     4000

 ion  position               nearest neighbor table
   1  0.572  0.676  0.567-  72 1.70  44 1.71  43 1.71  67 1.94 110 3.18 103 3.19  98 3.22
   2  0.393  0.605  0.443-   3 1.09   5 1.09   4 1.10  67 1.48
   3  0.435  0.697  0.441-   2 1.09
   4  0.426  0.574  0.390-   2 1.10
   5  0.302  0.569  0.436-   2 1.09
   6  0.015  0.335  0.839-  88 1.62 104 1.62
   7  0.205  0.414  0.546-  95 1.61  82 1.63
   8  0.549  0.096  0.203- 111 1.62 106 1.62
   9  0.877  0.762  0.868-  79 1.62 105 1.62
  10  0.445  0.551  0.817-  83 1.61 103 1.64
  11  0.123  0.880  0.131-  86 1.62  84 1.62
  12  0.091  0.547  0.802-  88 1.62  94 1.62
  13  0.413  0.207  0.460-  99 1.62 112 1.63
  14  0.764  0.881  0.141-  81 1.62  97 1.62
  15  0.220  0.782  0.537- 100 1.62  92 1.62
  16  0.904  0.099  0.130-  90 1.63  81 1.63
  17  0.237  0.120  0.867- 107 1.62 101 1.62
  18  0.878  0.440  0.455-  91 1.62  93 1.62
  19  0.439  0.871  0.546-  92 1.62 110 1.64
  20  0.985  0.316  0.168-  80 1.62  90 1.62
  21  0.653  0.016  0.510-  89 1.61 110 1.62
  22  0.008  0.654  0.497- 100 1.62  93 1.62
  23  0.337  0.315  0.165- 108 1.62  87 1.62
  24  0.987  0.666  0.164-  96 1.62  84 1.62
  25  0.360  0.361  0.502-  95 1.61  99 1.64
  26  0.687  0.018  0.173- 106 1.62  81 1.62
  27  0.661  0.983  0.844- 109 1.62  78 1.62
  28  0.998  0.344  0.503-  82 1.61  91 1.62
  29  0.783  0.222  0.464-  91 1.61  89 1.61
  30  0.337  0.020  0.164- 111 1.62  86 1.62
  31  0.910  0.453  0.204-  80 1.62  96 1.62
  32  0.309  0.332  0.829-  83 1.62 107 1.62
  33  0.449  0.905  0.805-  85 1.62  78 1.62
  34  0.071  0.663  0.666- 100 1.63  94 1.63
  35  0.663  0.072  0.338- 106 1.63  89 1.63
  36  0.998  0.740  0.999-  84 1.63  79 1.63
  37  0.595  0.939  0.675-  78 1.63 110 1.63
  38  0.931  0.599  0.331-  93 1.63  96 1.63
  39  0.260  0.262  0.999-  87 1.63 107 1.63
  40  0.407  0.342  0.333-  99 1.64 108 1.64
  41  0.791  0.571  0.466-  93 1.61  98 1.63
  42  0.742  0.999  0.007-  81 1.63 109 1.63
  43  0.588  0.804  0.542- 110 1.59   1 1.71
  44  0.579  0.649  0.678- 103 1.60   1 1.71
  45  0.261  0.001  0.998-  86 1.63 101 1.63
  46  0.059  0.402  0.671-  82 1.62  88 1.63
  47  0.401  0.064  0.333- 111 1.63 112 1.63
  48  0.354  0.428  0.669-  95 1.61  83 1.65
  49  0.745  0.745  0.005-  97 1.62 105 1.62
  50  0.550  0.451  0.199- 108 1.62 102 1.62
  51  0.876  0.120  0.872- 104 1.62 109 1.62
  52  0.334  0.928  0.668-  92 1.62  85 1.63
  53  0.573  0.422  0.454-  99 1.62  98 1.65
  54  0.670  0.586  0.333- 102 1.62  98 1.63
  55  0.935  0.333  0.335-  91 1.62  80 1.63
  56  0.349  0.998  0.501- 112 1.62  92 1.62
  57  0.312  0.983  0.832- 101 1.62  85 1.62
  58  0.905  0.801  0.129-  84 1.63  97 1.63
  59  0.231  0.766  0.791-  94 1.63  85 1.63
  60  0.123  0.240  0.134-  90 1.62  87 1.62
[...]
  65  0.096  0.902  0.877- 101 1.63  79 1.63
  66  0.799  0.902  0.879- 109 1.63 105 1.63
  67  0.418  0.575  0.532-   2 1.48  95 1.71   1 1.94
  68  0.532  0.769  0.794-  78 1.62 103 1.64
  69  0.770  0.531  0.205-  96 1.63 102 1.63
  70  0.134  0.562  0.544-  82 1.63 100 1.64
  71  0.468  0.233  0.217- 108 1.63 111 1.63
  72  0.645  0.637  0.497-  98 1.58   1 1.70
  73  0.769  0.234  0.215-  80 1.63 106 1.63
  74  0.661  0.684  0.844- 105 1.61 103 1.63
  75  0.014  0.686  0.831-  94 1.62  79 1.62
  76  0.095  0.197  0.877- 107 1.63 104 1.63
  77  0.687  0.666  0.169-  97 1.62 102 1.62
  78  0.560  0.898  0.778-  27 1.62  33 1.62  68 1.62  37 1.63 109 3.09  85 3.12 110 3.12
  79  0.997  0.773  0.894-   9 1.62  75 1.62  36 1.63  65 1.63  94 3.10 105 3.12 101 3.14  84 3.14

  80  0.898  0.333  0.231-  31 1.62  20 1.62  55 1.63  73 1.63  90 3.09  91 3.09  96 3.14
  81  0.774  1.000  0.112-  14 1.62  26 1.62  42 1.63  16 1.63 106 3.10  97 3.11  90 3.13
  82  0.098  0.432  0.567-  28 1.61  46 1.62   7 1.63  70 1.63  91 3.05  88 3.10 100 3.14
  83  0.334  0.444  0.776-  10 1.61  32 1.62  62 1.63  48 1.65 103 3.04 107 3.11  95 3.15
  84  0.003  0.772  0.105-  11 1.62  24 1.62  36 1.63  58 1.63  96 3.08  97 3.13  86 3.13  79 3.14

[...]

 111  0.439  0.103  0.230-  30 1.62   8 1.62  71 1.63  47 1.63 112 3.10  86 3.11 106 3.13
 112  0.432  0.102  0.438-  56 1.62  13 1.63  61 1.63  47 1.63  92 3.10 111 3.10  89 3.12  99 3.13

  LATTYP: Found a triclinic cell.
 ALAT       =    13.7322043366
 B/A-ratio  =     0.9994204432
 C/A-ratio  =     1.0843400083
 COS(alpha) =     0.0000550690
 COS(beta)  =     0.0002592819
 COS(gamma) =     0.4999019569

  Lattice vectors:

 A1 = (   6.8687391400, -11.8909148200,  -0.0018197300)
 A2 = (  -6.8608326700, -11.8862902600,  -0.0004082900)
 A3 = (   0.0015106500,  -0.0013072700, -14.8903784300)

Analysis of symmetry for initial positions (statically):
 Subroutine PRICEL returns:
 Original cell was already a primitive cell.

 Routine SETGRP: Setting up the symmetry group for a
 triclinic supercell.

 Subroutine GETGRP returns: Found  1 space group operations
 (whereof  1 operations were pure point group operations)
 out of a pool of  2 trial point group operations.

The static configuration has the point symmetry C_1 .

Analysis of symmetry for dynamics (positions and initial velocities):
 Subroutine PRICEL returns:
 Original cell was already a primitive cell.

 Routine SETGRP: Setting up the symmetry group for a
 triclinic supercell.

 Subroutine GETGRP returns: Found  1 space group operations
 (whereof  1 operations were pure point group operations)
 out of a pool of  2 trial point group operations.

The dynamic configuration has the point symmetry C_1 .

 Subroutine INISYM returns: Found  1 space group operations
 (whereof  1 operations are pure point group operations),
 and found     1 'primitive' translations

 KPOINTS: KPOINTS created by Atomic Simulation Env

Automatic generation of k-mesh.
Space group operators:
 irot       det(A)        alpha          n_x          n_y          n_z        tau_x        tau_y        tau_z
    1     1.000000     0.000000     1.000000     0.000000     0.000000     0.000000     0.000000     0.000000

 Subroutine IBZKPT returns following result:

 Found      1 irreducible k-points:

 Following reciprocal coordinates:
            Coordinates               Weight
  0.000000  0.000000  0.000000      1.000000

 Following cartesian coordinates:
            Coordinates               Weight
  0.000000  0.000000  0.000000      1.000000

 I would recommend the setting:
   dimension x,y,z NGX =    67 NGY =   67 NGZ =   73
 SYSTEM =  unknown system
 POSCAR =  Al  C  H  O Si

 Startparameter for this run:
   NWRITE =      2    write-flag & timer
   PREC   = normal    normal or accurate (medium, high low for compatibility)
   ISTART =      0    job   : 0-new  1-cont  2-samecut
   ICHARG =      2    charge: 1-file 2-atom 10-const
   ISPIN  =      1    spin polarized calculation?
   LNONCOLLINEAR =      F non collinear calculations
   LSORBIT =      F    spin-orbit coupling
   INIWAV =      1    electr: 0-lowe 1-rand  2-diag
   LASPH  =      F    aspherical Exc in radial PAW
   METAGGA=      F    non-selfconsistent MetaGGA calc.

 Electronic Relaxation 1
   ENCUT  =  400.0 eV  29.40 Ry    5.42 a.u.  22.39 22.39 24.28*2*pi/ulx,y,z
   ENINI  =  400.0     initial cutoff
   ENAUG  =  644.9 eV  augmentation charge cutoff
   NELM   =     60;   NELMIN=  2; NELMDL= -5     # of ELM steps
   EDIFF  = 0.1E-05   stopping-criterion for ELM
   LREAL  =      T    real-space projection
   NLSPLINE    = F    spline interpolate recip. space projectors
   LCOMPAT=      F    compatible to vasp.4.4
   GGA_COMPAT  = T    GGA compatible to vasp.4.4-vasp.4.6
   LMAXPAW     = -100 max onsite density
   LMAXMIX     =    2 max onsite mixed and CHGCAR
   VOSKOWN=      0    Vosko Wilk Nusair interpolation
   ROPT   =   -0.00050  -0.00050  -0.00050  -0.00050
   ROPT   =   -0.00050
 Ionic relaxation
   EDIFFG = 0.1E-04   stopping-criterion for IOM
   NSW    =      0    number of steps for IOM
   NBLOCK =      1;   KBLOCK =      1    inner block; outer block
[...]
    -0.001510650  0.001307270 14.890378430     0.000006902 -0.000006291  0.067157462

  length of vectors
    13.729572661 13.732204337 14.890378564     0.084130313  0.084114191  0.067157462

 FORCES acting on ions
    electron-ion (+dipol)            ewald-force                    non-local-force                 convergence-correction
   -.717E+02 -.399E+02 0.942E+01   0.742E+02 0.422E+02 -.848E+01   -.246E+01 -.230E+01 -.935E+00   0.192E-03 0.184E-03 0.134E-03
   0.761E+02 -.608E+02 0.239E+03   -.794E+02 0.636E+02 -.246E+03   0.336E+01 -.281E+01 0.758E+01   0.144E-03 0.501E-05 0.857E-04
   0.143E+02 -.514E+02 0.534E+02   -.146E+02 0.574E+02 -.536E+02   0.373E+00 -.596E+01 0.210E+00   0.510E-04 -.286E-04 0.648E-04
   -.599E+01 -.688E+00 0.770E+02   0.948E+01 -.123E+01 -.812E+02   -.349E+01 0.191E+01 0.422E+01   0.707E-05 -.539E-05 0.650E-04
   0.512E+02 0.662E+01 0.577E+02   -.566E+02 -.887E+01 -.583E+02   0.541E+01 0.226E+01 0.599E+00   0.773E-04 0.387E-05 0.217E-04
   0.229E+03 -.644E+01 -.138E+02   -.249E+03 0.716E+01 0.159E+02   0.200E+02 -.716E+00 -.212E+01   0.204E-03 0.526E-05 0.219E-03
   0.394E+01 0.207E+03 0.133E+03   -.571E+01 -.218E+03 -.145E+03   0.178E+01 0.114E+02 0.124E+02   0.157E-03 -.338E-03 0.163E-03
   -.190E+01 0.114E+03 0.211E+03   0.227E+01 -.119E+03 -.229E+03   -.377E+00 0.445E+01 0.181E+02   -.132E-03 -.964E-04 0.116E-03
   0.448E+01 0.125E+03 0.210E+03   -.533E+01 -.131E+03 -.229E+03   0.850E+00 0.605E+01 0.183E+02   -.104E-03 0.617E-04 -.844E-04
   -.829E+02 0.452E+02 -.240E+03   0.852E+02 -.450E+02 0.264E+03   -.233E+01 -.206E+00 -.241E+02   -.427E-04 0.101E-03 0.155E-03
   -.113E+03 0.628E+02 -.191E+03   0.119E+03 -.661E+02 0.208E+03   -.577E+01 0.330E+01 -.171E+02   0.236E-03 -.839E-04 -.512E-04
   0.111E+03 0.590E+02 -.210E+03   -.116E+03 -.611E+02 0.228E+03   0.477E+01 0.207E+01 -.184E+02   0.239E-03 0.189E-03 0.320E-03
   0.146E+03 0.851E+02 -.188E+03   -.156E+03 -.910E+02 0.202E+03   0.100E+02 0.594E+01 -.147E+02   -.221E-03 -.222E-03 0.209E-04
   0.990E+02 0.577E+02 -.205E+03   -.104E+03 -.608E+02 0.223E+03   0.472E+01 0.305E+01 -.187E+02   0.463E-04 0.180E-04 -.181E-03
   0.102E+03 -.622E+02 0.186E+03   -.104E+03 0.637E+02 -.202E+03   0.157E+01 -.151E+01 0.166E+02   -.201E-03 0.402E-03 0.182E-03
   -.765E+02 0.441E+02 -.153E+03   0.893E+02 -.515E+02 0.166E+03   -.128E+02 0.739E+01 -.122E+02   0.102E-03 0.121E-03 -.107E-03
   -.106E+03 -.620E+02 0.202E+03   0.112E+03 0.648E+02 -.220E+03   -.526E+01 -.281E+01 0.175E+02   0.805E-04 0.136E-04 -.282E-04
   0.662E+02 0.294E+02 -.138E+03   -.765E+02 -.346E+02 0.149E+03   0.103E+02 0.521E+01 -.114E+02   -.152E-03 -.328E-04 -.237E-03
   -.642E+01 0.563E+02 0.130E+03   0.898E+01 -.707E+02 -.142E+03   -.256E+01 0.143E+02 0.122E+02   0.472E-04 0.215E-03 0.327E-03
   -.110E+03 -.197E+03 0.105E+02   0.120E+03 0.215E+03 -.113E+02   -.101E+02 -.184E+02 0.748E+00   0.170E-03 0.254E-03 -.133E-03
   -.231E+03 -.243E+02 -.363E+02   0.251E+03 0.268E+02 0.403E+02   -.198E+02 -.252E+01 -.396E+01   0.307E-03 0.236E-04 0.198E-03
   0.125E+03 -.217E+03 0.766E+01   -.135E+03 0.236E+03 -.924E+01   0.948E+01 -.195E+02 0.159E+01   -.307E-03 0.358E-03 -.851E-04
   0.102E+03 -.188E+03 0.189E+02   -.111E+03 0.205E+03 -.201E+02   0.908E+01 -.172E+02 0.112E+01   -.163E-03 -.224E-04 -.885E-04
   -.237E+03 0.561E+01 0.144E+02   0.258E+03 -.642E+01 -.157E+02   -.217E+02 0.809E+00 0.126E+01   0.364E-03 0.680E-04 -.683E-04
   0.765E+02 0.207E+03 -.276E+02   -.820E+02 -.221E+03 0.269E+02   0.551E+01 0.144E+02 0.706E+00   0.982E-04 -.386E-03 0.632E-04
   0.109E+03 0.198E+03 -.540E+00   -.119E+03 -.216E+03 0.947E+00   0.971E+01 0.178E+02 -.406E+00   -.336E-04 0.619E-04 -.751E-04
   0.128E+03 -.193E+03 -.185E+02   -.140E+03 0.210E+03 0.210E+02   0.124E+02 -.171E+02 -.251E+01   -.141E-03 -.129E-03 -.161E-03
   -.109E+03 0.227E+03 -.834E+01   0.120E+03 -.248E+03 0.776E+01   -.107E+02 0.203E+02 0.575E+00   0.280E-04 -.417E-03 -.789E-04
   -.801E+02 0.517E+02 -.195E+03   0.815E+02 -.528E+02 0.211E+03   -.131E+01 0.109E+01 -.160E+02   0.662E-04 -.296E-03 -.278E-04
   -.120E+03 0.187E+03 0.184E+02   0.131E+03 -.203E+03 -.202E+02   -.109E+02 0.164E+02 0.184E+01   -.110E-03 -.198E-03 -.404E-04
   -.106E+03 -.607E+02 0.198E+03   0.111E+03 0.636E+02 -.214E+03   -.539E+01 -.288E+01 0.161E+02   0.232E-03 0.184E-03 -.522E-04
   -.223E+03 0.205E+02 0.197E+02   0.243E+03 -.231E+02 -.230E+02   -.191E+02 0.261E+01 0.331E+01   0.250E-04 0.828E-04 0.624E-04
   0.900E+00 -.117E+03 -.208E+03   -.814E+00 0.121E+03 0.227E+03   -.888E-01 -.457E+01 -.186E+02   0.622E-04 -.652E-04 0.113E-03
   0.252E+03 -.150E+01 -.592E+01   -.270E+03 0.379E+00 0.559E+01   0.189E+02 0.112E+01 0.323E+00   0.574E-04 0.318E-03 0.720E-04
   -.121E+03 0.213E+03 -.538E+00   0.130E+03 -.231E+03 0.146E+01   -.884E+01 0.182E+02 -.918E+00   0.258E-04 0.151E-03 0.234E-03
   -.113E+03 0.207E+03 0.839E+01   0.121E+03 -.223E+03 -.867E+01   -.852E+01 0.163E+02 0.284E+00   0.317E-03 0.886E-04 0.636E-04
   -.119E+03 -.218E+03 -.135E+02   0.126E+03 0.236E+03 0.136E+02   -.728E+01 -.184E+02 -.110E+00   0.124E-03 0.292E-04 0.131E-03
   -.106E+03 -.217E+03 -.891E+00   0.114E+03 0.235E+03 0.527E+00   -.764E+01 -.176E+02 0.365E+00   -.697E-04 0.125E-03 -.585E-04
   -.123E+03 -.208E+03 0.510E+01   0.132E+03 0.225E+03 -.533E+01   -.900E+01 -.169E+02 0.230E+00   -.121E-03 0.119E-03 -.338E-04
   0.242E+03 0.244E+00 0.116E+02   -.263E+03 0.324E+01 -.118E+02   0.209E+02 -.348E+01 0.179E+00   0.403E-04 -.271E-03 0.604E-04
   0.106E+02 -.128E+03 -.216E+03   -.119E+02 0.134E+03 0.234E+03   0.131E+01 -.519E+01 -.187E+02   -.718E-04 0.264E-03 0.799E-06
   0.232E+03 0.464E+01 -.902E+00   -.249E+03 -.498E+01 0.110E+01   0.175E+02 0.341E+00 -.195E+00   -.587E-04 -.899E-04 -.246E-03
   -.203E+03 -.545E+02 0.140E+03   0.215E+03 0.503E+02 -.154E+03   -.122E+02 0.424E+01 0.143E+02   0.494E-03 0.150E-03 0.218E-03
   -.240E+03 0.263E+02 0.370E+02   0.254E+03 -.347E+02 -.461E+02   -.140E+02 0.838E+01 0.917E+01   0.160E-03 0.808E-04 -.333E-04
   -.242E+03 -.527E+01 0.476E+01   0.261E+03 0.542E+01 -.540E+01   -.195E+02 -.152E+00 0.636E+00   0.648E-04 -.161E-03 -.239E-04
   0.147E+03 0.217E+03 -.185E+02   -.160E+03 -.234E+03 0.195E+02   0.133E+02 0.166E+02 -.958E+00   0.228E-03 -.862E-04 0.140E-03
   0.121E+03 0.224E+03 0.746E+01   -.129E+03 -.243E+03 -.768E+01   0.853E+01 0.194E+02 0.214E+00   -.234E-03 0.664E-04 0.113E-03
   -.160E+03 0.175E+03 -.268E+02   0.176E+03 -.182E+03 0.301E+02   -.163E+02 0.708E+01 -.330E+01   0.136E-03 -.466E-04 0.248E-03
   0.113E+03 0.194E+03 0.403E+01   -.121E+03 -.209E+03 -.412E+01   0.845E+01 0.147E+02 0.937E-01   -.128E-03 0.343E-05 -.208E-03
   0.911E+02 -.537E+02 0.220E+03   -.953E+02 0.563E+02 -.239E+03   0.416E+01 -.264E+01 0.189E+02   -.128E-03 -.323E-04 0.770E-04
   0.115E+03 -.635E+02 0.199E+03   -.122E+03 0.664E+02 -.217E+03   0.642E+01 -.289E+01 0.179E+02   -.389E-04 -.140E-03 -.101E-03
   0.126E+03 -.213E+03 -.451E+01   -.135E+03 0.230E+03 0.452E+01   0.959E+01 -.168E+02 -.917E-02   -.128E-04 0.140E-03 0.967E-04
   -.968E+02 0.508E+02 -.169E+03   0.114E+03 -.593E+02 0.179E+03   -.173E+02 0.852E+01 -.996E+01   0.290E-04 -.116E-03 -.315E-04
   0.952E+02 -.203E+03 -.669E+01   -.103E+03 0.218E+03 0.832E+01   0.826E+01 -.150E+02 -.163E+01   0.154E-03 0.486E-05 0.121E-03
   -.245E+03 0.105E+02 0.257E+01   0.266E+03 -.110E+02 -.272E+01   -.214E+02 0.441E+00 0.150E+00   -.466E-04 -.130E-03 -.789E-04
   0.239E+03 -.367E+01 -.511E+01   -.260E+03 0.289E+01 0.561E+01   0.207E+02 0.780E+00 -.504E+00   -.327E-03 0.135E-03 0.106E-03
   -.105E+03 -.204E+03 0.987E+01   0.115E+03 0.222E+03 -.113E+02   -.963E+01 -.182E+02 0.146E+01   0.138E-03 -.225E-04 -.208E-04
   -.442E+01 -.875E+02 -.156E+03   0.486E+01 0.102E+03 0.169E+03   -.438E+00 -.143E+02 -.130E+02   0.202E-03 0.449E-04 -.664E-04
   -.637E+02 0.383E+02 -.150E+03   0.762E+02 -.453E+02 0.161E+03   -.125E+02 0.696E+01 -.113E+02   0.255E-03 0.164E-03 0.192E-03
   -.277E+01 -.121E+03 -.193E+03   0.316E+01 0.127E+03 0.211E+03   -.390E+00 -.628E+01 -.179E+02   0.566E-04 0.203E-03 -.133E-03
[...]
   0.521E+02 0.475E+02 -.550E+02   -.499E+02 -.470E+02 0.537E+02   -.217E+01 -.558E+00 0.130E+01   -.162E-04 -.161E-03 0.863E-04
   0.639E+02 -.411E+02 0.369E+02   -.643E+02 0.416E+02 -.365E+02   0.368E+00 -.458E+00 -.360E+00   -.142E-03 0.259E-03 0.227E-05
   -.513E+02 -.410E+02 0.467E+02   0.514E+02 0.405E+02 -.465E+02   -.135E+00 0.497E+00 -.261E+00   0.101E-03 -.468E-05 -.329E-04
   0.544E+02 -.245E+02 0.536E+02   -.540E+02 0.249E+02 -.523E+02   -.412E+00 -.330E+00 -.129E+01   0.630E-05 -.172E-04 0.526E-04
   -.584E+02 0.334E+02 -.463E+02   0.593E+02 -.336E+02 0.425E+02   -.940E+00 0.135E+00 0.381E+01   -.889E-05 0.522E-04 -.127E-03
   0.632E+02 -.273E+02 0.470E+02   -.628E+02 0.270E+02 -.463E+02   -.437E+00 0.267E+00 -.717E+00   0.341E-04 -.367E-05 0.308E-05
   -.790E+01 0.665E+02 0.495E+02   0.713E+01 -.666E+02 -.492E+02   0.768E+00 0.517E-01 -.241E+00   -.856E-04 0.976E-05 -.138E-03
   0.505E+01 0.671E+02 0.476E+02   -.477E+01 -.668E+02 -.469E+02   -.276E+00 -.214E+00 -.652E+00   -.419E-04 0.300E-05 0.686E-04
   -.626E+02 -.281E+02 0.463E+02   0.621E+02 0.276E+02 -.460E+02   0.517E+00 0.482E+00 -.313E+00   0.472E-04 0.507E-04 -.153E-04
   0.538E+02 -.331E+02 0.500E+02   -.532E+02 0.329E+02 -.500E+02   -.524E+00 0.241E+00 -.403E-02   -.890E-04 -.365E-04 -.729E-05
   0.570E+02 -.388E+02 0.431E+02   -.569E+02 0.381E+02 -.430E+02   -.139E+00 0.660E+00 -.836E-01   -.716E-04 -.703E-04 -.169E-03
   -.764E+02 -.418E+02 0.223E+02   0.782E+02 0.392E+02 -.231E+02   -.182E+01 0.266E+01 0.873E+00   0.247E-03 -.290E-04 0.115E-03
   -.646E+01 0.694E+02 0.502E+02   0.613E+01 -.690E+02 -.495E+02   0.328E+00 -.409E+00 -.620E+00   -.856E-04 -.101E-03 0.330E-04
   0.703E+02 0.292E+02 -.463E+02   -.693E+02 -.294E+02 0.457E+02   -.103E+01 0.204E+00 0.508E+00   -.138E-03 -.235E-05 0.767E-04
   0.100E+02 -.224E+01 0.210E+02   0.526E-12 -.320E-12 -.270E-12   -.101E+02 0.223E+01 -.211E+02   0.383E-02 0.257E-02 0.388E-02

 POSITION                                       TOTAL-FORCE (eV/Angst)
      3.21909      8.03095      8.44758        -0.029133     -0.016613      0.009757
      1.23930      7.19812      6.59136         0.009752     -0.013307      0.018719
      1.17925      8.28953      6.56212         0.008685     -0.000083      0.007838
      1.91114      6.82324      5.80869         0.016499     -0.017415      0.009911
      0.24085      6.76129      6.49554         0.001892     -0.001484      0.012392
     -2.08988      3.97860     12.49807         0.014815      0.000255     -0.000962
     -0.02630      4.92796      8.13307        -0.001813      0.014650      0.009682
      6.88406      1.13804      3.02269         0.000300      0.008115      0.013258
      6.81233      9.05365     12.92933        -0.000724      0.008463      0.013653
      2.31978      6.54946     12.17021        -0.005391      0.002846     -0.011679
     -4.35241     10.46729      1.94989        -0.008153      0.004772     -0.012784
     -2.51813      6.50963     11.94557         0.007609      0.003296     -0.012871
      4.25158      2.46470      6.85347         0.008555      0.004927     -0.014409
      4.44451     10.47270      2.09561         0.006430      0.004582     -0.013673
     -2.34577      9.29652      8.00005         0.008525     -0.005402      0.011911
     11.72326      1.17743      1.93665        -0.002953      0.000917     -0.011615
      2.42249      1.43101     12.91143        -0.005869     -0.004548      0.014314
      9.03471      5.23147      6.77960         0.003408      0.001594     -0.011180
      0.04470     10.35516      8.13029        -0.000545     -0.001348      0.007566
     11.35531      3.75614      2.50816        -0.006479     -0.012937     -0.000746
      8.86031      0.18353      7.59710        -0.015666     -0.001341     -0.001152
     -4.38101      7.78101      7.40306         0.008790     -0.011763      0.002955
      2.45458      3.74777      2.45529         0.006992     -0.011340      0.001277
      8.98213      7.91094      2.44071        -0.014087      0.001874     -0.000993
      2.46862      4.28803      7.47912         0.003756      0.016104     -0.002412
      9.30964      0.20741      2.57980         0.007222      0.012454     -0.000040
      2.32582     11.68728     12.57072         0.008074     -0.011247     -0.000467
     11.33435      4.09027      7.48244        -0.004580      0.014944      0.001710
      9.22625      2.64087      6.90609        -0.007238      0.004273     -0.012948
      4.48896      0.23852      2.43817        -0.007775      0.013259      0.000439
      9.38517      5.38430      3.03783        -0.007520     -0.001275      0.015453
      1.96757      3.94248     12.35090        -0.013960      0.000461     -0.000197
     -0.05543     10.76090     11.98240        -0.002123     -0.007070     -0.013716
     -3.57539      7.88623      9.92045         0.015567     -0.000877     -0.000480
      8.60488      0.85062      5.03695        -0.007635      0.012537      0.001127
      8.62187      8.80050     14.88024        -0.007358      0.012902      0.001011
      1.72677     11.15911     10.05533        -0.006928     -0.015368     -0.002328
      8.66210      7.12406      4.93170        -0.007620     -0.011209      0.000040
      1.76554      3.11899     14.87048        -0.007927     -0.011680     -0.000237
      3.23218      4.06512      4.96198         0.012701      0.004618      0.002649
      6.93902      6.78360      6.94440        -0.001119     -0.010017     -0.013875
      3.32360     11.87934      0.10906         0.014078      0.000784      0.000808
      2.54908      9.55582      8.06935        -0.010731     -0.011663      0.007288
      3.49188      7.71588     10.10123        -0.018186      0.001258     -0.005495
      3.58006      0.01338     14.86166        -0.014872     -0.000637     -0.001105
     -1.94901      4.78044      9.99088         0.007290      0.014267     -0.002111
      5.07298      0.75776      4.96089         0.008262      0.012350      0.000579
      1.91570      5.09280      9.96646        -0.008935      0.013272     -0.005074
      5.11013      8.85998      0.08108         0.006994      0.011973      0.000355
      4.45369      5.36154      2.95600         0.005895     -0.003514      0.014816
     11.20282      1.42795     12.98053         0.007014     -0.003498      0.013355
     -1.78858     11.03371      9.94840         0.007134     -0.013082     -0.001260
      4.95913      5.02136      6.76102        -0.004922      0.001921     -0.012295
      5.17797      6.96203      4.95299         0.003328     -0.011933      0.002621
     10.54132      3.96098      4.98425        -0.014416     -0.001354     -0.000263
     -2.06779     11.86084      7.46348         0.014961     -0.000906      0.000369
     -2.47026     11.69253     12.38311        -0.005546     -0.013428     -0.000813
      6.91404      9.52537      1.92312        -0.000738     -0.003089     -0.010985
     -2.09690      9.11104     11.77659        -0.001632      0.001846     -0.010585
      0.03555      2.85659      1.99714        -0.001026     -0.007516     -0.012558
[...]
      5.37735      6.60103      6.53294        -0.011241     -0.026646     -0.026129
      3.74953      3.96618      6.51034         0.014906      0.023730     -0.022261
     -3.08603      7.90762      8.36856         0.026745     -0.018295      0.016075
      3.09293      0.01184     13.30920        -0.024258     -0.018096      0.022020
      5.36235      6.63807      3.37972         0.023103     -0.009477      0.022061
      3.06617      7.90344     11.62976        -0.024332      0.019661     -0.017565
     12.12303      2.69843     13.37304         0.027187     -0.011296      0.020476
      5.26232      9.19495     13.38912        -0.004017      0.027904      0.020353
      8.44077      1.24962      3.46650         0.003361      0.029316      0.019196
      1.52131      2.71290     13.31015        -0.027297     -0.009952      0.021072
      3.74383      3.97813      3.40919         0.019224     -0.012578      0.023615
     10.55971      0.00206     13.41217         0.021131     -0.016521      0.019167
      1.59801     10.76652      8.47521        -0.032322     -0.017479      0.013429
      5.31446      1.22888      3.41918        -0.004720      0.029726      0.020999
      5.23504      1.21432      6.51832         0.027953      0.011771     -0.020124
    total drift:                               -0.009125     -0.001215     -0.027027

  FREE ENERGIE OF THE ION-ELECTRON SYSTEM (eV)
  free  energy   TOTEN  =      -882.71734940 eV

  energy  without entropy=     -882.71734940  energy(sigma->0) =     -882.71734940