 vasp.5.4.1 05Feb16 (build Feb 08 2018 09:21:51) complex

 executed on             LinuxIFC date 2019.11.13  15:47:55

 INCAR:
 POTCAR:    PAW_PBE Al 04Jan2001
 POTCAR:    PAW_PBE C 08Apr2002
 POTCAR:    PAW_PBE H 15Jun2001
 POTCAR:    PAW_PBE O 08Apr2002
 POTCAR:    PAW_PBE Si 05Jan2001
 POTCAR:    PAW_PBE Al 04Jan2001
   VRHFIN =Al: s2p1

   TITEL  = PAW_PBE Al 04Jan2001
   POMASS =   26.981; ZVAL   =    3.000    mass and valenz
   ENMAX  =  240.300; ENMIN  =  180.225 eV

 POTCAR:    PAW_PBE C 08Apr2002
   VRHFIN =C: s2p2

   TITEL  = PAW_PBE C 08Apr2002
   POMASS =   12.011; ZVAL   =    4.000    mass and valenz
   ENMAX  =  400.000; ENMIN  =  300.000 eV

 POTCAR:    PAW_PBE H 15Jun2001
   VRHFIN =H: ultrasoft test

   TITEL  = PAW_PBE H 15Jun2001
   POMASS =    1.000; ZVAL   =    1.000    mass and valenz
   ENMAX  =  250.000; ENMIN  =  200.000 eV

 POTCAR:    PAW_PBE O 08Apr2002
   VRHFIN =O: s2p4

   TITEL  = PAW_PBE O 08Apr2002
   POMASS =   16.000; ZVAL   =    6.000    mass and valenz
   ENMAX  =  400.000; ENMIN  =  300.000 eV

 POTCAR:    PAW_PBE Si 05Jan2001
   VRHFIN =Si: s2p2

   TITEL  = PAW_PBE Si 05Jan2001
   POMASS =   28.085; ZVAL   =    4.000    mass and valenz
   ENMAX  =  245.345; ENMIN  =  184.009 eV

 Optimization of the real space projectors (new method)

 maximal supplied QI-value         = 19.84
 optimisation between [QCUT,QGAM] = [ 10.12, 20.44] = [ 28.68,116.96] Ry
 Optimized for a Real-space Cutoff    1.23 Angstroem

   l    n(q)    QCUT    max X(q) W(low)/X(q) W(high)/X(q)  e(spline)
   0      7    10.119   176.870    0.49E-04    0.18E-03    0.39E-07
   0      7    10.119   105.762    0.46E-04    0.18E-03    0.38E-07
   1      7    10.119    55.370    0.30E-03    0.37E-03    0.12E-06
   1      7    10.119    20.208    0.27E-03    0.35E-03    0.11E-06
 Optimization of the real space projectors (new method)

[...]

   l    n(q)    QCUT    max X(q) W(low)/X(q) W(high)/X(q)  e(spline)
   0      8    10.150    20.381    0.22E-03    0.32E-03    0.29E-06
   0      8    10.150    15.268    0.23E-03    0.35E-03    0.30E-06
   1      8    10.150     5.964    0.46E-03    0.53E-03    0.21E-06
   1      8    10.150     5.382    0.38E-03    0.45E-03    0.19E-06
 Optimization of the real space projectors (new method)

 maximal supplied QI-value         = 19.84
 optimisation between [QCUT,QGAM] = [ 10.12, 20.44] = [ 28.68,116.96] Ry
 Optimized for a Real-space Cutoff    1.23 Angstroem

   l    n(q)    QCUT    max X(q) W(low)/X(q) W(high)/X(q)  e(spline)
   0      7    10.119   159.560    0.56E-04    0.22E-03    0.45E-07
   0      7    10.119   115.863    0.56E-04    0.21E-03    0.45E-07
   1      7    10.119    88.339    0.34E-03    0.49E-03    0.11E-06
   1      7    10.119    48.592    0.33E-03    0.48E-03    0.11E-06
  PAW_PBE Al 04Jan2001                  :
  PAW_PBE C 08Apr2002                   :
  PAW_PBE H 15Jun2001                   :
  PAW_PBE O 08Apr2002                   :
  PAW_PBE Si 05Jan2001                  :

 POSCAR: Al  C  H  O Si
  positions in cartesian coordinates
 exchange correlation table for  LEXCH =        8
   RHO(1)=    0.500       N(1)  =     2000
   RHO(2)=  100.500       N(2)  =     4000

 ion  position               nearest neighbor table
   1  0.557  0.667  0.565-  67 1.71  43 1.71  44 1.72  72 1.88 103 3.13 110 3.15  95 3.16  98 3.26

   2  0.780  0.767  0.499-   5 1.09   4 1.10   3 1.10  72 1.48
   3  0.811  0.790  0.430-   2 1.10
   4  0.838  0.753  0.541-   2 1.10
   5  0.765  0.831  0.528-   2 1.09
   6  0.015  0.331  0.833- 104 1.62  88 1.62
   7  0.210  0.425  0.537-  82 1.61  95 1.62
   8  0.547  0.095  0.203- 111 1.62 106 1.62
   9  0.876  0.759  0.867-  79 1.62 105 1.62
  10  0.448  0.546  0.802-  83 1.62 103 1.63
  11  0.122  0.878  0.133-  84 1.62  86 1.62
  12  0.090  0.545  0.800-  94 1.62  88 1.62
  13  0.429  0.216  0.460-  99 1.61 112 1.62
  14  0.763  0.882  0.137-  97 1.62  81 1.62
  15  0.213  0.786  0.535- 100 1.62  92 1.63
  16  0.900  0.100  0.124-  81 1.63  90 1.63
  17  0.237  0.119  0.866- 101 1.62 107 1.62
  18  0.875  0.436  0.450-  93 1.61  91 1.63
  19  0.433  0.872  0.542-  92 1.62 110 1.64
  20  0.982  0.317  0.164-  80 1.62  90 1.62
  21  0.651  0.008  0.505-  89 1.61 110 1.63
  22  0.999  0.651  0.500-  93 1.62 100 1.63
  23  0.332  0.313  0.166- 108 1.62  87 1.62
  24  0.982  0.664  0.163-  96 1.62  84 1.62
  25  0.337  0.337  0.501-  99 1.61  95 1.64
  26  0.684  0.018  0.168- 106 1.62  81 1.62
  27  0.663  0.980  0.836- 109 1.62  78 1.63
  28  0.999  0.346  0.501-  91 1.61  82 1.62
  29  0.784  0.217  0.464-  91 1.61  89 1.62
  30  0.335  0.020  0.164- 111 1.62  86 1.62
  31  0.907  0.453  0.207-  96 1.61  80 1.62
  32  0.311  0.332  0.833- 107 1.62  83 1.62
  33  0.449  0.903  0.801-  85 1.62  78 1.62
  34  0.070  0.664  0.666- 100 1.63  94 1.63
  35  0.666  0.071  0.335- 106 1.63  89 1.63
  36  0.997  0.741  0.999-  84 1.63  79 1.63
  37  0.591  0.929  0.669-  78 1.62 110 1.63
  38  0.928  0.602  0.332-  93 1.63  96 1.63
  39  0.258  0.258  0.999-  87 1.63 107 1.63
  40  0.408  0.342  0.333-  99 1.63 108 1.63
  41  0.782  0.560  0.464-  98 1.61  93 1.63
  42  0.737  0.996  0.002-  81 1.62 109 1.63
  43  0.575  0.794  0.533- 110 1.59   1 1.71
  44  0.597  0.663  0.673- 103 1.60   1 1.72
  45  0.257  0.999  0.999-  86 1.62 101 1.63
  46  0.067  0.407  0.667-  82 1.63  88 1.63
  47  0.400  0.066  0.333- 111 1.63 112 1.63
  48  0.333  0.406  0.667-  83 1.63  95 1.64
  49  0.745  0.743  0.004-  97 1.62 105 1.63
  50  0.547  0.452  0.197- 102 1.62 108 1.63
  51  0.876  0.118  0.869- 104 1.62 109 1.62
  52  0.331  0.927  0.667-  92 1.63  85 1.63
  53  0.558  0.438  0.465-  98 1.61  99 1.65
  54  0.665  0.587  0.332-  98 1.61 102 1.64
  55  0.932  0.327  0.332-  91 1.63  80 1.63
  56  0.348  0.002  0.502- 112 1.62  92 1.63
  57  0.313  0.980  0.833- 101 1.62  85 1.62
  58  0.903  0.802  0.129-  97 1.63  84 1.63
  59  0.231  0.764  0.790-  94 1.63  85 1.63
  60  0.119  0.239  0.132-  87 1.62  90 1.62
  61  0.564  0.135  0.454- 112 1.63  89 1.63
[...]
  67  0.432  0.555  0.532-  95 1.60   1 1.71
  68  0.530  0.765  0.791-  78 1.63 103 1.64
  69  0.766  0.530  0.208- 102 1.63  96 1.63
  70  0.130  0.565  0.541- 100 1.63  82 1.64
  71  0.468  0.234  0.215- 108 1.63 111 1.63
  72  0.670  0.661  0.497-   2 1.48  98 1.70   1 1.88
  73  0.766  0.234  0.211-  80 1.63 106 1.63
  74  0.659  0.681  0.844- 105 1.61 103 1.63
  75  0.015  0.684  0.833-  79 1.62  94 1.62
  76  0.095  0.195  0.876- 104 1.63 107 1.63
  77  0.687  0.668  0.169- 102 1.62  97 1.63
  78  0.558  0.893  0.773-  33 1.62  37 1.62  68 1.63  27 1.63 109 3.10  85 3.12 110 3.14
  79  0.997  0.771  0.894-   9 1.62  75 1.62  36 1.63  65 1.63  94 3.10 105 3.11 101 3.13
  80  0.896  0.332  0.229-  20 1.62  31 1.62  55 1.63  73 1.63  90 3.09  91 3.09 106 3.14
  81  0.771  0.999  0.107-  26 1.62  14 1.62  42 1.62  16 1.63 106 3.10  97 3.12 109 3.14  90 3.14

[...]

 111  0.437  0.104  0.229-  30 1.62   8 1.62  47 1.63  71 1.63 112 3.10  86 3.11 106 3.14
 112  0.435  0.104  0.437-  13 1.62  56 1.62  61 1.63  47 1.63  92 3.09 111 3.10  89 3.14

  LATTYP: Found a triclinic cell.
 ALAT       =    13.7322043366
 B/A-ratio  =     0.9994204432
 C/A-ratio  =     1.0843400083
 COS(alpha) =     0.0000550690
 COS(beta)  =     0.0002592819
 COS(gamma) =     0.4999019569

  Lattice vectors:

 A1 = (   6.8687391400, -11.8909148200,  -0.0018197300)
 A2 = (  -6.8608326700, -11.8862902600,  -0.0004082900)
 A3 = (   0.0015106500,  -0.0013072700, -14.8903784300)

Analysis of symmetry for initial positions (statically):
 Subroutine PRICEL returns:
 Original cell was already a primitive cell.

 Routine SETGRP: Setting up the symmetry group for a
 triclinic supercell.

 Subroutine GETGRP returns: Found  1 space group operations
 (whereof  1 operations were pure point group operations)
 out of a pool of  2 trial point group operations.

The static configuration has the point symmetry C_1 .

Analysis of symmetry for dynamics (positions and initial velocities):
 Subroutine PRICEL returns:
 Original cell was already a primitive cell.

 Routine SETGRP: Setting up the symmetry group for a
 triclinic supercell.

 Subroutine GETGRP returns: Found  1 space group operations
 (whereof  1 operations were pure point group operations)
 out of a pool of  2 trial point group operations.

The dynamic configuration has the point symmetry C_1 .

 Subroutine INISYM returns: Found  1 space group operations
 (whereof  1 operations are pure point group operations),
 and found     1 'primitive' translations

 KPOINTS: KPOINTS created by Atomic Simulation Env

Automatic generation of k-mesh.
Space group operators:
 irot       det(A)        alpha          n_x          n_y          n_z        tau_x        tau_y        tau_z
    1     1.000000     0.000000     1.000000     0.000000     0.000000     0.000000     0.000000     0.000000

 Subroutine IBZKPT returns following result:

 Found      1 irreducible k-points:

 Following reciprocal coordinates:
            Coordinates               Weight
  0.000000  0.000000  0.000000      1.000000

 Following cartesian coordinates:
            Coordinates               Weight
  0.000000  0.000000  0.000000      1.000000

 I would recommend the setting:
   dimension x,y,z NGX =    67 NGY =   67 NGZ =   73
 SYSTEM =  unknown system
 POSCAR =  Al  C  H  O Si

 Startparameter for this run:
   NWRITE =      2    write-flag & timer
   PREC   = normal    normal or accurate (medium, high low for compatibility)
   ISTART =      0    job   : 0-new  1-cont  2-samecut
   ICHARG =      2    charge: 1-file 2-atom 10-const
   ISPIN  =      1    spin polarized calculation?
   LNONCOLLINEAR =      F non collinear calculations
   LSORBIT =      F    spin-orbit coupling
   INIWAV =      1    electr: 0-lowe 1-rand  2-diag
   LASPH  =      F    aspherical Exc in radial PAW
   METAGGA=      F    non-selfconsistent MetaGGA calc.

 Electronic Relaxation 1
   ENCUT  =  400.0 eV  29.40 Ry    5.42 a.u.  22.39 22.39 24.28*2*pi/ulx,y,z
   ENINI  =  400.0     initial cutoff
   ENAUG  =  644.9 eV  augmentation charge cutoff
   NELM   =     60;   NELMIN=  2; NELMDL= -5     # of ELM steps
   EDIFF  = 0.1E-05   stopping-criterion for ELM
   LREAL  =      T    real-space projection
   NLSPLINE    = F    spline interpolate recip. space projectors
   LCOMPAT=      F    compatible to vasp.4.4
   GGA_COMPAT  = T    GGA compatible to vasp.4.4-vasp.4.6
   LMAXPAW     = -100 max onsite density
   LMAXMIX     =    2 max onsite mixed and CHGCAR
   VOSKOWN=      0    Vosko Wilk Nusair interpolation
   ROPT   =   -0.00050  -0.00050  -0.00050  -0.00050
   ROPT   =   -0.00050
 Ionic relaxation
   EDIFFG = 0.1E-04   stopping-criterion for IOM
   NSW    =      0    number of steps for IOM
   NBLOCK =      1;   KBLOCK =      1    inner block; outer block
   IBRION =     -1    ionic relax: 0-MD 1-quasi-New 2-CG
   NFREE  =      0    steps in history (QN), initial steepest desc. (CG)
   ISIF   =      2    stress and relaxation
   IWAVPR =     10    prediction:  0-non 1-charg 2-wave 3-comb
   ISYM   =      2    0-nonsym 1-usesym 2-fastsym
   LCORR  =      T    Harris-Foulkes like correction to forces

[...]
    -0.001510650  0.001307270 14.890378430     0.000006902 -0.000006291  0.067157462

  length of vectors
    13.729572661 13.732204337 14.890378564     0.084130313  0.084114191  0.067157462

 FORCES acting on ions
    electron-ion (+dipol)            ewald-force                    non-local-force                 convergence-correction
   -.149E+02 -.128E+02 0.237E+02   0.113E+02 0.133E+02 -.211E+02   0.356E+01 -.491E+00 -.256E+01   -.193E-03 -.978E-04 0.157E-03
   -.113E+03 -.223E+03 -.154E+02   0.117E+03 0.231E+03 0.162E+02   -.456E+01 -.758E+01 -.823E+00   -.558E-04 0.843E-04 0.955E-04
   -.245E+02 -.612E+02 0.442E+02   0.260E+02 0.628E+02 -.496E+02   -.143E+01 -.160E+01 0.540E+01   -.805E-05 0.172E-04 0.162E-04
   -.543E+02 -.339E+02 -.410E+02   0.591E+02 0.331E+02 0.444E+02   -.480E+01 0.822E+00 -.333E+01   -.182E-04 0.123E-05 0.264E-04
   -.674E+01 -.726E+02 -.150E+02   0.327E+01 0.769E+02 0.173E+02   0.347E+01 -.428E+01 -.226E+01   -.340E-04 -.951E-06 0.244E-04
   0.228E+03 0.148E+00 0.445E-01   -.248E+03 -.444E+00 -.477E+00   0.201E+02 0.294E+00 0.433E+00   -.180E-03 0.100E-03 -.306E-04
   -.523E+01 0.111E+03 0.182E+03   0.630E+01 -.116E+03 -.198E+03   -.107E+01 0.555E+01 0.158E+02   0.157E-03 -.129E-03 -.435E-04
   0.151E+01 0.120E+03 0.204E+03   -.139E+01 -.125E+03 -.221E+03   -.118E+00 0.497E+01 0.171E+02   -.944E-04 -.377E-04 0.169E-04
   0.718E+00 0.130E+03 0.196E+03   -.146E+01 -.137E+03 -.215E+03   0.736E+00 0.640E+01 0.186E+02   -.120E-03 -.410E-03 0.544E-04
   -.938E+02 0.571E+02 -.200E+03   0.978E+02 -.586E+02 0.219E+03   -.405E+01 0.151E+01 -.187E+02   0.213E-03 -.207E-03 -.576E-04
   -.126E+03 0.657E+02 -.191E+03   0.133E+03 -.694E+02 0.209E+03   -.672E+01 0.361E+01 -.178E+02   0.157E-03 0.163E-04 0.991E-05
   0.104E+03 0.633E+02 -.207E+03   -.110E+03 -.665E+02 0.225E+03   0.512E+01 0.322E+01 -.183E+02   -.484E-04 -.163E-03 0.385E-04
   0.922E+02 0.573E+02 -.184E+03   -.942E+02 -.591E+02 0.199E+03   0.204E+01 0.175E+01 -.144E+02   -.279E-03 -.876E-04 0.124E-03
   0.109E+03 0.575E+02 -.194E+03   -.114E+03 -.598E+02 0.213E+03   0.491E+01 0.230E+01 -.185E+02   -.267E-04 0.334E-04 -.182E-03
   0.871E+02 -.581E+02 0.193E+03   -.912E+02 0.611E+02 -.210E+03   0.407E+01 -.296E+01 0.170E+02   0.232E-03 0.917E-04 -.135E-04
   -.669E+02 0.344E+02 -.139E+03   0.793E+02 -.414E+02 0.151E+03   -.124E+02 0.698E+01 -.114E+02   0.306E-04 0.900E-04 -.119E-03
   -.113E+03 -.676E+02 0.198E+03   0.119E+03 0.710E+02 -.216E+03   -.545E+01 -.337E+01 0.179E+02   0.193E-03 0.285E-03 -.911E-04
   0.474E+02 0.399E+02 -.125E+03   -.574E+02 -.468E+02 0.135E+03   0.100E+02 0.692E+01 -.925E+01   0.158E-03 -.145E-03 0.341E-05
   -.179E+01 0.873E+02 0.145E+03   0.343E+01 -.101E+03 -.157E+03   -.164E+01 0.132E+02 0.126E+02   -.799E-04 -.116E-03 0.497E-04
   -.108E+03 -.209E+03 0.170E+02   0.118E+03 0.228E+03 -.188E+02   -.950E+01 -.188E+02 0.182E+01   0.968E-04 0.147E-03 -.429E-04
   -.211E+03 -.176E+02 -.260E+02   0.232E+03 0.186E+02 0.299E+02   -.207E+02 -.975E+00 -.397E+01   -.714E-04 0.770E-05 0.105E-03
   0.938E+02 -.194E+03 -.732E+01   -.105E+03 0.213E+03 0.897E+01   0.109E+02 -.188E+02 -.164E+01   0.256E-03 0.412E-04 0.695E-04
   0.109E+03 -.194E+03 0.765E+01   -.119E+03 0.210E+03 -.823E+01   0.984E+01 -.165E+02 0.587E+00   -.753E-04 -.372E-04 0.982E-04
   -.241E+03 0.145E+02 0.237E+02   0.262E+03 -.157E+02 -.259E+02   -.210E+02 0.111E+01 0.224E+01   0.212E-03 -.236E-04 -.225E-03
   0.128E+03 0.226E+03 -.105E+02   -.142E+03 -.248E+03 0.129E+02   0.131E+02 0.218E+02 -.241E+01   -.216E-03 -.217E-03 0.114E-03
   0.123E+03 0.197E+03 0.970E+01   -.133E+03 -.214E+03 -.101E+02   0.104E+02 0.176E+02 0.370E+00   -.100E-03 0.397E-04 -.695E-04
   0.124E+03 -.197E+03 -.957E+01   -.135E+03 0.215E+03 0.981E+01   0.112E+02 -.174E+02 -.234E+00   -.155E-03 0.129E-03 -.599E-04
   -.117E+03 0.204E+03 -.910E+01   0.128E+03 -.223E+03 0.108E+02   -.110E+02 0.190E+02 -.173E+01   0.402E-03 -.677E-04 0.510E-04
   -.839E+02 0.492E+02 -.200E+03   0.856E+02 -.507E+02 0.217E+03   -.180E+01 0.144E+01 -.172E+02   0.575E-04 -.105E-03 0.681E-04
   -.124E+03 0.186E+03 0.176E+02   0.135E+03 -.202E+03 -.194E+02   -.108E+02 0.161E+02 0.189E+01   0.281E-05 -.549E-04 0.898E-04
   -.114E+03 -.616E+02 0.191E+03   0.120E+03 0.641E+02 -.205E+03   -.556E+01 -.258E+01 0.142E+02   0.166E-03 -.195E-04 -.204E-03
   -.226E+03 -.308E+01 -.804E+00   0.245E+03 0.369E+01 0.362E+00   -.197E+02 -.612E+00 0.441E+00   0.344E-03 0.153E-03 -.196E-03
   -.503E+00 -.117E+03 -.204E+03   0.107E+01 0.123E+03 0.222E+03   -.568E+00 -.537E+01 -.180E+02   0.661E-04 0.114E-03 -.629E-04
   0.225E+03 0.657E+01 -.895E+01   -.243E+03 -.724E+01 0.917E+01   0.186E+02 0.675E+00 -.219E+00   0.174E-03 -.112E-03 0.166E-03
   -.115E+03 0.212E+03 0.376E+01   0.125E+03 -.230E+03 -.323E+01   -.101E+02 0.175E+02 -.535E+00   -.111E-03 -.618E-05 0.627E-04
   -.117E+03 0.205E+03 0.474E+01   0.125E+03 -.221E+03 -.517E+01   -.812E+01 0.156E+02 0.429E+00   -.232E-04 -.230E-03 -.138E-03
   -.102E+03 -.202E+03 -.116E+02   0.110E+03 0.219E+03 0.112E+02   -.812E+01 -.167E+02 0.440E+00   -.889E-04 0.101E-04 0.171E-03
   -.127E+03 -.213E+03 0.931E+01   0.134E+03 0.233E+03 -.101E+02   -.690E+01 -.197E+02 0.756E+00   0.192E-03 0.198E-04 -.108E-03
   -.123E+03 -.209E+03 0.171E+01   0.133E+03 0.225E+03 -.222E+01   -.948E+01 -.160E+02 0.502E+00   0.126E-03 0.844E-04 -.174E-03
   0.240E+03 -.170E+02 0.127E+02   -.258E+03 0.211E+02 -.132E+02   0.181E+02 -.411E+01 0.473E+00   -.257E-03 -.170E-03 0.182E-03
   -.178E+02 -.319E+02 -.197E+03   0.198E+02 0.320E+02 0.215E+03   -.193E+01 -.757E-01 -.179E+02   -.643E-04 -.919E-04 0.137E-03
   0.244E+03 0.596E+01 -.873E+00   -.262E+03 -.722E+01 0.587E+00   0.185E+02 0.126E+01 0.286E+00   -.661E-04 0.740E-04 -.210E-03
   -.780E+02 -.138E+01 0.176E+03   0.878E+02 -.443E+01 -.192E+03   -.984E+01 0.581E+01 0.166E+02   -.187E-03 -.245E-03 0.111E-03
   -.208E+03 0.271E+02 0.249E+02   0.227E+03 -.282E+02 -.345E+02   -.191E+02 0.106E+01 0.954E+01   -.244E-04 -.284E-03 0.131E-03
   -.242E+03 -.314E+01 0.157E+01   0.260E+03 0.314E+01 -.209E+01   -.184E+02 0.206E-02 0.516E+00   0.578E-04 0.706E-04 -.613E-04
   0.125E+03 0.199E+03 -.831E+01   -.137E+03 -.214E+03 0.832E+01   0.114E+02 0.155E+02 -.128E-01   0.169E-03 -.117E-04 0.526E-04
   0.121E+03 0.222E+03 0.561E+01   -.131E+03 -.241E+03 -.562E+01   0.992E+01 0.189E+02 0.498E-02   -.159E-03 -.327E-04 0.109E-03
   -.123E+03 0.189E+03 -.554E+01   0.133E+03 -.203E+03 0.513E+01   -.101E+02 0.149E+02 0.416E+00   0.143E-03 -.836E-04 0.616E-04
   0.115E+03 0.200E+03 0.160E+01   -.123E+03 -.215E+03 -.207E+01   0.776E+01 0.152E+02 0.476E+00   0.489E-04 -.238E-03 -.306E-03
   0.109E+03 -.543E+02 0.218E+03   -.114E+03 0.565E+02 -.237E+03   0.550E+01 -.215E+01 0.190E+02   -.107E-03 -.162E-03 -.630E-04
   0.116E+03 -.680E+02 0.191E+03   -.122E+03 0.709E+02 -.208E+03   0.590E+01 -.298E+01 0.167E+02   -.209E-03 0.122E-03 -.940E-05
   0.114E+03 -.206E+03 -.423E+01   -.124E+03 0.222E+03 0.461E+01   0.969E+01 -.162E+02 -.386E+00   0.109E-03 0.144E-03 0.665E-05
   -.482E+02 0.522E+02 -.165E+03   0.528E+02 -.592E+02 0.182E+03   -.456E+01 0.700E+01 -.170E+02   -.337E-03 -.316E-03 0.218E-03
   0.132E+03 -.165E+03 0.268E+02   -.142E+03 0.180E+03 -.286E+02   0.981E+01 -.151E+02 0.179E+01   -.177E-03 -.122E-03 -.369E-04
   -.256E+03 0.826E+01 0.179E+01   0.278E+03 -.103E+02 -.208E+01   -.216E+02 0.208E+01 0.284E+00   0.266E-03 0.176E-05 0.258E-04
   0.231E+03 -.698E+01 -.117E+02   -.252E+03 0.777E+01 0.133E+02   0.214E+02 -.787E+00 -.161E+01   -.121E-03 0.114E-03 0.133E-04
   -.120E+03 -.199E+03 -.448E+01   0.131E+03 0.216E+03 0.460E+01   -.106E+02 -.175E+02 -.126E+00   0.177E-03 0.217E-03 -.765E-04
   -.491E+01 -.887E+02 -.150E+03   0.543E+01 0.103E+03 0.163E+03   -.518E+00 -.146E+02 -.135E+02   0.680E-04 -.114E-04 -.233E-03
   -.773E+02 0.434E+02 -.151E+03   0.901E+02 -.505E+02 0.162E+03   -.129E+02 0.709E+01 -.113E+02   0.158E-03 -.471E-04 -.641E-04
   -.308E+01 -.131E+03 -.195E+03   0.304E+01 0.137E+03 0.213E+03   0.407E-01 -.611E+01 -.180E+02   0.579E-04 0.953E-04 0.957E-04
[...]
   0.559E+02 0.415E+02 -.393E+02   -.573E+02 -.426E+02 0.394E+02   0.138E+01 0.106E+01 -.117E+00   -.194E-03 -.176E-03 0.131E-03
   0.418E+02 -.391E+02 0.412E+02   -.412E+02 0.387E+02 -.404E+02   -.633E+00 0.409E+00 -.802E+00   0.167E-03 0.388E-04 0.215E-04
   -.574E+02 -.411E+02 0.433E+02   0.573E+02 0.408E+02 -.431E+02   0.913E-01 0.266E+00 -.217E+00   0.108E-03 0.129E-03 -.623E-04
   0.650E+02 -.167E+02 0.593E+02   -.645E+02 0.166E+02 -.596E+02   -.508E+00 0.330E-01 0.336E+00   -.913E-04 -.856E-04 -.133E-03
   -.454E+02 0.441E+02 -.459E+02   0.464E+02 -.439E+02 0.421E+02   -.103E+01 -.134E+00 0.376E+01   0.664E-04 -.206E-03 -.611E-04
   0.639E+02 -.298E+02 0.462E+02   -.633E+02 0.298E+02 -.456E+02   -.569E+00 0.427E-02 -.566E+00   -.119E-03 0.842E-04 -.826E-04
   -.449E+01 0.692E+02 0.403E+02   0.360E+01 -.693E+02 -.405E+02   0.897E+00 0.701E-01 0.117E+00   -.442E-05 -.229E-03 -.936E-04
   0.104E+02 0.682E+02 0.494E+02   -.100E+02 -.679E+02 -.488E+02   -.332E+00 -.305E+00 -.652E+00   -.910E-04 -.383E-04 -.338E-04
   -.631E+02 -.312E+02 0.427E+02   0.627E+02 0.313E+02 -.428E+02   0.392E+00 -.138E+00 0.870E-01   0.169E-03 0.141E-03 -.145E-03
   0.588E+02 -.379E+02 0.490E+02   -.585E+02 0.371E+02 -.488E+02   -.342E+00 0.733E+00 -.266E+00   -.124E-03 -.302E-04 0.270E-04
   0.604E+02 -.414E+02 0.410E+02   -.603E+02 0.407E+02 -.409E+02   -.177E+00 0.631E+00 -.781E-01   -.106E-03 0.591E-04 -.946E-04
   -.468E+02 -.237E+02 0.328E+02   0.488E+02 0.208E+02 -.336E+02   -.196E+01 0.281E+01 0.787E+00   -.155E-04 -.115E-03 0.364E-04
   -.723E+01 0.687E+02 0.494E+02   0.694E+01 -.684E+02 -.488E+02   0.291E+00 -.273E+00 -.652E+00   -.266E-04 -.872E-04 0.229E-04
   0.640E+02 0.318E+02 -.448E+02   -.631E+02 -.317E+02 0.442E+02   -.844E+00 -.800E-01 0.570E+00   -.173E-03 0.330E-05 0.842E-04
   -.276E+01 -.220E+02 -.383E+01   -.568E-12 0.401E-12 -.426E-13   0.271E+01 0.220E+02 0.382E+01   0.882E-03 -.377E-02 -.708E-03

 POSITION                                       TOTAL-FORCE (eV/Angst)
      3.07150      7.92668      8.40803        -0.012123     -0.010205      0.014169
      5.44545      9.11377      7.43369        -0.005902     -0.020090     -0.005431
      5.71419      9.39020      6.40655         0.004832     -0.020483     -0.005106
      6.33505      8.94981      8.05074        -0.003707     -0.010222     -0.000103
      4.79617      9.88397      7.86068        -0.011673     -0.004927     -0.007076
     -2.07322      3.93487     12.39712         0.014213     -0.000771      0.000031
     -0.03447      5.04996      7.99829        -0.001402      0.010482      0.011469
      6.85916      1.12645      3.02446        -0.000618      0.008203      0.012836
      6.82049      9.02008     12.90298        -0.000859      0.007406      0.013613
      2.40090      6.48994     11.94978        -0.007160      0.002972     -0.012777
     -4.36356     10.44229      1.97499        -0.007348      0.004885     -0.012242
     -2.51229      6.48497     11.92003         0.005029      0.004960     -0.013039
      4.40377      2.56480      6.84492         0.006159      0.001611     -0.015061
      4.41536     10.48163      2.03885         0.008078      0.003753     -0.012267
     -2.47984      9.34813      7.96923         0.006085     -0.003852      0.013696
     11.66870      1.18589      1.84060        -0.002222      0.002280     -0.010359
      2.44004      1.41209     12.89819        -0.007296     -0.004500      0.012971
      9.02001      5.17648      6.70318         0.003967      0.002061     -0.011820
     -0.03902     10.36350      8.06985        -0.001260      0.002621      0.009679
     11.30782      3.76287      2.43932        -0.007579     -0.011700      0.000146
      8.88624      0.09048      7.51893        -0.012964     -0.000308     -0.001933
      9.23767      7.74002      7.44537         0.000672     -0.010408      0.000344
      2.41378      3.71483      2.47175         0.007357     -0.012647     -0.000541
      8.92679      7.88800      2.43186        -0.014017     -0.000231      0.000859
      2.31745      4.00675      7.46156         0.006003      0.011587     -0.000490
      9.26649      0.20703      2.49685         0.006727      0.012991      0.002585
      2.36525     11.65189     12.44657         0.007381     -0.013229      0.000517
     11.33179      4.11351      7.45811        -0.006745      0.011844     -0.000781
      9.27057      2.58291      6.90106        -0.007790      0.003623     -0.012541
      4.45978      0.24090      2.44010        -0.006811      0.013545      0.000804
      9.34978      5.37673      3.07795        -0.006912     -0.003003      0.017405
      1.98809      3.94566     12.40042        -0.014681     -0.000900     -0.000585
     -0.03793     10.74157     11.92114        -0.000888     -0.008363     -0.011800
     -3.60149      7.89894      9.92365         0.012655      0.000246      0.001225
      8.65576      0.83980      4.98142        -0.007276      0.014331      0.001006
      8.59920      8.80757     14.88100        -0.007108      0.013384     -0.000137
      1.72438     11.04788      9.95854        -0.008034     -0.010968      0.000398
      8.61291      7.15025      4.93930        -0.012591     -0.008805      0.000780
      1.76483      3.06452     14.88010        -0.007756     -0.012807     -0.000711
      3.25522      4.06433      4.96063         0.014889      0.001206     -0.000655
      6.89788      6.65128      6.91064        -0.000780     -0.003585     -0.011376
      3.27678     11.83961      0.02836         0.013712      0.000575     -0.000777
      2.43712      9.44267      7.93152        -0.000586     -0.001019      0.013760
      3.64755      7.87980     10.02740        -0.009734      0.003096     -0.003802
     -3.32937     11.88096     14.87425        -0.015256     -0.000704      0.000198
     -1.87556      4.83637      9.93041         0.008706      0.013904     -0.000918
      5.03783      0.78312      4.95643         0.008179      0.011751     -0.001273
      1.78050      4.82874      9.92507        -0.008802      0.012380     -0.000986
      5.12192      8.83366      0.06003         0.007333      0.011853      0.000791
      4.39899      5.37132      2.94064         0.007447     -0.003372      0.013119
     11.21871      1.39995     12.94445         0.007089     -0.004051      0.013748
     -1.82967     11.02146      9.93905         0.008543     -0.013583      0.001274
      4.65103      5.20587      6.92687        -0.001258      0.004541     -0.009108
      5.09952      6.97438      4.95017         0.010219     -0.009412      0.003133
     10.54639      3.88618      4.94775        -0.013748     -0.003558     -0.001320
      4.75399      0.02726      7.46841         0.014470     -0.000818     -0.000450
     -2.44486     11.65807     12.41079        -0.007236     -0.013106     -0.000888
      6.88939      9.53663      1.92455         0.000319     -0.003775     -0.009197
     -2.08327      9.08881     11.76594        -0.002735      0.001235     -0.010953
     -0.00872      2.84085      1.96961         0.000328     -0.007368     -0.013333
[...]
      5.34359      6.59076      6.49790        -0.001472     -0.018604     -0.018414
      3.64181      3.95461      6.53935         0.023704      0.015469     -0.020018
     -3.14914      7.92475      8.35959         0.017228     -0.014517      0.019263
     -3.77215     11.88130     13.30770        -0.023722     -0.018047      0.020397
      5.30959      6.64000      3.35988         0.026941     -0.005289      0.026233
      3.11881      7.89340     11.54054        -0.017941      0.019572     -0.024133
     12.13375      2.68353     13.31313         0.026262     -0.010900      0.020801
      5.26914      9.16222     13.36340        -0.004021      0.028174      0.018127
      8.42656      1.24075      3.42034         0.006577      0.027340      0.019809
      1.53310      2.69022     13.30908        -0.026155     -0.010585      0.020000
      3.71570      3.96900      3.39943         0.021560     -0.017002      0.022871
      3.69487     11.86183     13.34328         0.022821     -0.018441      0.022584
      1.53863     10.68101      8.37629        -0.016713     -0.012595      0.016830
      5.28993      1.23563      3.41129        -0.004308      0.028191      0.021121
      5.26036      1.23340      6.50801         0.025826      0.011190     -0.020246
    total drift:                               -0.048847     -0.051609     -0.013842

  FREE ENERGIE OF THE ION-ELECTRON SYSTEM (eV)
  free  energy   TOTEN  =      -882.70710275 eV

  energy  without entropy=     -882.70710275  energy(sigma->0) =     -882.70710275