 vasp.5.4.1 05Feb16 (build Feb 08 2018 09:21:51) complex

 executed on             LinuxIFC date 2019.10.17  10:42:42

 INCAR:
 POTCAR:    PAW_PBE Al 04Jan2001
 POTCAR:    PAW_PBE C 08Apr2002
 POTCAR:    PAW_PBE H 15Jun2001
 POTCAR:    PAW_PBE O 08Apr2002
 POTCAR:    PAW_PBE Si 05Jan2001
 POTCAR:    PAW_PBE Al 04Jan2001
   VRHFIN =Al: s2p1

   TITEL  = PAW_PBE Al 04Jan2001
   POMASS =   26.981; ZVAL   =    3.000    mass and valenz
   ENMAX  =  240.300; ENMIN  =  180.225 eV

 POTCAR:    PAW_PBE C 08Apr2002
   VRHFIN =C: s2p2

   TITEL  = PAW_PBE C 08Apr2002
   POMASS =   12.011; ZVAL   =    4.000    mass and valenz
   ENMAX  =  400.000; ENMIN  =  300.000 eV

 POTCAR:    PAW_PBE H 15Jun2001
   VRHFIN =H: ultrasoft test

   TITEL  = PAW_PBE H 15Jun2001
   POMASS =    1.000; ZVAL   =    1.000    mass and valenz
   ENMAX  =  250.000; ENMIN  =  200.000 eV

 POTCAR:    PAW_PBE O 08Apr2002
   VRHFIN =O: s2p4

   TITEL  = PAW_PBE O 08Apr2002
   POMASS =   16.000; ZVAL   =    6.000    mass and valenz
   ENMAX  =  400.000; ENMIN  =  300.000 eV

 POTCAR:    PAW_PBE Si 05Jan2001
   VRHFIN =Si: s2p2

   TITEL  = PAW_PBE Si 05Jan2001
   POMASS =   28.085; ZVAL   =    4.000    mass and valenz
   ENMAX  =  245.345; ENMIN  =  184.009 eV

 Optimization of the real space projectors (new method)

 maximal supplied QI-value         = 19.84
 optimisation between [QCUT,QGAM] = [ 10.12, 20.44] = [ 28.68,116.96] Ry
 Optimized for a Real-space Cutoff    1.23 Angstroem

   l    n(q)    QCUT    max X(q) W(low)/X(q) W(high)/X(q)  e(spline)
   0      7    10.119   176.870    0.49E-04    0.18E-03    0.39E-07
   0      7    10.119   105.762    0.46E-04    0.18E-03    0.38E-07
   1      7    10.119    55.370    0.30E-03    0.37E-03    0.12E-06
   1      7    10.119    20.208    0.27E-03    0.35E-03    0.11E-06
 Optimization of the real space projectors (new method)

[...]

   l    n(q)    QCUT    max X(q) W(low)/X(q) W(high)/X(q)  e(spline)
   0      8    10.150    20.381    0.22E-03    0.32E-03    0.29E-06
   0      8    10.150    15.268    0.23E-03    0.35E-03    0.30E-06
   1      8    10.150     5.964    0.46E-03    0.53E-03    0.21E-06
   1      8    10.150     5.382    0.38E-03    0.45E-03    0.19E-06
 Optimization of the real space projectors (new method)

 maximal supplied QI-value         = 19.84
 optimisation between [QCUT,QGAM] = [ 10.12, 20.44] = [ 28.68,116.96] Ry
 Optimized for a Real-space Cutoff    1.23 Angstroem

   l    n(q)    QCUT    max X(q) W(low)/X(q) W(high)/X(q)  e(spline)
   0      7    10.119   159.560    0.56E-04    0.22E-03    0.45E-07
   0      7    10.119   115.863    0.56E-04    0.21E-03    0.45E-07
   1      7    10.119    88.339    0.34E-03    0.49E-03    0.11E-06
   1      7    10.119    48.592    0.33E-03    0.48E-03    0.11E-06
  PAW_PBE Al 04Jan2001                  :
  PAW_PBE C 08Apr2002                   :
  PAW_PBE H 15Jun2001                   :
  PAW_PBE O 08Apr2002                   :
  PAW_PBE Si 05Jan2001                  :

 POSCAR: Al  C  H  O Si
  positions in cartesian coordinates
 exchange correlation table for  LEXCH =        8
   RHO(1)=    0.500       N(1)  =     2000
   RHO(2)=  100.500       N(2)  =     4000

 ion  position               nearest neighbor table
   1  0.562  0.667  0.562-  43 1.62  72 1.62  44 1.63  67 1.63   2 2.39  98 3.10 103 3.13 110 3.13
                            95 3.14
   2  0.615  0.798  0.441-   4 1.08   5 1.08   3 1.08  43 1.50   1 2.39 110 2.55
   3  0.660  0.889  0.441-   2 1.08
   4  0.660  0.753  0.441-   2 1.08
   5  0.524  0.753  0.441-   2 1.08
   6  0.019  0.334  0.834-  88 1.62 104 1.62
   7  0.214  0.427  0.535-  82 1.62  95 1.62
   8  0.547  0.094  0.203- 106 1.62 111 1.62
   9  0.880  0.761  0.867- 105 1.62  79 1.62
  10  0.453  0.547  0.799-  83 1.62 103 1.62
  11  0.121  0.880  0.131-  84 1.62  86 1.62
  12  0.094  0.547  0.798-  94 1.62  88 1.62
  13  0.429  0.215  0.466- 112 1.62  99 1.62
  14  0.760  0.880  0.133-  97 1.62  81 1.62
  15  0.214  0.787  0.534-  92 1.62 100 1.62
  16  0.900  0.099  0.124-  81 1.63  90 1.63
  17  0.239  0.120  0.868- 107 1.62 101 1.62
  18  0.864  0.432  0.457-  91 1.63  93 1.63
  19  0.432  0.864  0.544- 110 1.63  92 1.63
  20  0.982  0.315  0.167-  90 1.62  80 1.62
  21  0.648  1.000  0.500-  89 1.62 110 1.62
  22  0.000  0.647  0.500- 100 1.62  93 1.62
  23  0.333  0.315  0.167- 108 1.62  87 1.62
  24  0.981  0.666  0.167-  96 1.62  84 1.62
  25  0.352  0.352  0.501-  95 1.62  99 1.62
  26  0.684  0.018  0.166- 106 1.62  81 1.62
  27  0.667  0.982  0.834-  78 1.62 109 1.62
  28  0.001  0.353  0.499-  82 1.62  91 1.62
  29  0.788  0.213  0.466-  91 1.62  89 1.62
  30  0.334  0.018  0.167-  86 1.62 111 1.62
  31  0.906  0.453  0.201-  80 1.62  96 1.62
  32  0.315  0.334  0.834-  83 1.62 107 1.62
  33  0.453  0.907  0.799-  85 1.62  78 1.62
  34  0.073  0.669  0.667-  94 1.63 100 1.63
  35  0.669  0.072  0.333-  89 1.63 106 1.63
  36  0.998  0.739  1.000-  79 1.63  84 1.63
  37  0.595  0.929  0.667- 110 1.63  78 1.63
  38  0.928  0.593  0.333-  93 1.63  96 1.63
  39  0.260  0.260  0.000- 107 1.63  87 1.63
  40  0.405  0.332  0.334-  99 1.63 108 1.63
  41  0.787  0.574  0.465-  93 1.62  98 1.62
  42  0.740  0.999  1.000- 109 1.63  81 1.63
  43  0.573  0.787  0.536-   2 1.50 110 1.62   1 1.62
  44  0.595  0.666  0.667-   1 1.63 103 1.63
  45  0.262  0.001  1.000- 101 1.63  86 1.63
  46  0.072  0.404  0.667-  88 1.63  82 1.63
  47  0.405  0.073  0.334- 112 1.63 111 1.63
  48  0.334  0.406  0.667-  95 1.63  83 1.63
  49  0.741  0.742  1.000- 105 1.63  97 1.63
  50  0.546  0.454  0.202- 108 1.62 102 1.62
  51  0.880  0.121  0.868- 109 1.62 104 1.62
  52  0.333  0.927  0.667-  85 1.63  92 1.63
  53  0.568  0.433  0.456-  98 1.63  99 1.63
  54  0.668  0.596  0.333-  98 1.63 102 1.63
  55  0.927  0.334  0.333-  91 1.63  80 1.63
  56  0.353  0.001  0.500-  92 1.62 112 1.62
  57  0.315  0.982  0.833- 101 1.62  85 1.62
  58  0.902  0.803  0.124-  97 1.63  84 1.63
  59  0.235  0.766  0.791-  85 1.63  94 1.63
  60  0.119  0.239  0.132-  87 1.62  90 1.62
  61  0.569  0.136  0.455-  89 1.63 112 1.63
[...]
  64  0.000  0.261  0.000- 104 1.63  90 1.63
  65  0.099  0.901  0.877-  79 1.63 101 1.63
  66  0.803  0.902  0.875- 109 1.63 105 1.63
  67  0.433  0.568  0.544-   1 1.63  95 1.63
  68  0.531  0.766  0.789-  78 1.63 103 1.63
  69  0.765  0.531  0.211-  96 1.63 102 1.63
  70  0.137  0.568  0.545- 100 1.63  82 1.63
  71  0.469  0.235  0.210- 111 1.63 108 1.63
  72  0.649  0.649  0.500-  98 1.62   1 1.62
  73  0.766  0.234  0.209- 106 1.63  80 1.63
  74  0.666  0.685  0.834- 103 1.62 105 1.62
  75  0.019  0.685  0.834-  94 1.62  79 1.62
  76  0.099  0.198  0.877- 104 1.63 107 1.63
  77  0.685  0.666  0.166- 102 1.62  97 1.62
  78  0.562  0.895  0.772-  27 1.62  33 1.62  37 1.63  68 1.63 109 3.10 110 3.12  85 3.13 103 3.14

  79  1.000  0.772  0.895-   9 1.62  75 1.62  36 1.63  65 1.63  94 3.10 105 3.12  84 3.13 101 3.14

[...]

 110  0.562  0.895  0.562-  43 1.62  21 1.62  37 1.63  19 1.63   2 2.55  89 3.11  78 3.12   1 3.13
                            92 3.13
 111  0.439  0.105  0.229-   8 1.62  30 1.62  47 1.63  71 1.63  86 3.10 112 3.13 108 3.13 106 3.14

 112  0.440  0.106  0.438-  56 1.62  13 1.62  47 1.63  61 1.63  92 3.11  99 3.12 111 3.13  89 3.14

  LATTYP: Found a triclinic cell.
 ALAT       =    13.7322043351
 B/A-ratio  =     0.9994204431
 C/A-ratio  =     1.0843400086
 COS(alpha) =     0.0000550692
 COS(beta)  =     0.0002592822
 COS(gamma) =     0.4999019565

  Lattice vectors:

 A1 = (   6.8687391430, -11.8909148166,  -0.0018197328)
 A2 = (  -6.8608326708, -11.8862902565,  -0.0004082906)
 A3 = (   0.0015106504,  -0.0013072721, -14.8903784329)

Analysis of symmetry for initial positions (statically):
 Subroutine PRICEL returns:
 Original cell was already a primitive cell.

 Routine SETGRP: Setting up the symmetry group for a
 triclinic supercell.

 Subroutine GETGRP returns: Found  1 space group operations
 (whereof  1 operations were pure point group operations)
 out of a pool of  2 trial point group operations.

The static configuration has the point symmetry C_1 .

Analysis of symmetry for dynamics (positions and initial velocities):
 Subroutine PRICEL returns:
 Original cell was already a primitive cell.

 Routine SETGRP: Setting up the symmetry group for a
 triclinic supercell.

 Subroutine GETGRP returns: Found  1 space group operations
 (whereof  1 operations were pure point group operations)
 out of a pool of  2 trial point group operations.

The dynamic configuration has the point symmetry C_1 .

 Subroutine INISYM returns: Found  1 space group operations
 (whereof  1 operations are pure point group operations),
 and found     1 'primitive' translations

 KPOINTS: KPOINTS created by Atomic Simulation Env

Automatic generation of k-mesh.
Space group operators:
 irot       det(A)        alpha          n_x          n_y          n_z        tau_x        tau_y        tau_z
    1     1.000000     0.000001     1.000000     0.000000     0.000000     0.000000     0.000000     0.000000

 Subroutine IBZKPT returns following result:

 Found      1 irreducible k-points:

 Following reciprocal coordinates:
            Coordinates               Weight
  0.000000  0.000000  0.000000      1.000000

 Following cartesian coordinates:
            Coordinates               Weight
  0.000000  0.000000  0.000000      1.000000

 I would recommend the setting:
   dimension x,y,z NGX =    67 NGY =   67 NGZ =   73
 SYSTEM =  unknown system
 POSCAR =  Al  C  H  O Si

 Startparameter for this run:
   NWRITE =      2    write-flag & timer
   PREC   = normal    normal or accurate (medium, high low for compatibility)
   ISTART =      0    job   : 0-new  1-cont  2-samecut
   ICHARG =      2    charge: 1-file 2-atom 10-const
   ISPIN  =      1    spin polarized calculation?
   LNONCOLLINEAR =      F non collinear calculations
   LSORBIT =      F    spin-orbit coupling
   INIWAV =      1    electr: 0-lowe 1-rand  2-diag
   LASPH  =      F    aspherical Exc in radial PAW
   METAGGA=      F    non-selfconsistent MetaGGA calc.

 Electronic Relaxation 1
   ENCUT  =  400.0 eV  29.40 Ry    5.42 a.u.  22.39 22.39 24.28*2*pi/ulx,y,z
   ENINI  =  400.0     initial cutoff
   ENAUG  =  644.9 eV  augmentation charge cutoff
   NELM   =     60;   NELMIN=  2; NELMDL= -5     # of ELM steps
   EDIFF  = 0.1E-05   stopping-criterion for ELM
   LREAL  =      T    real-space projection
   NLSPLINE    = F    spline interpolate recip. space projectors
   LCOMPAT=      F    compatible to vasp.4.4
   GGA_COMPAT  = T    GGA compatible to vasp.4.4-vasp.4.6
   LMAXPAW     = -100 max onsite density
   LMAXMIX     =    2 max onsite mixed and CHGCAR
   VOSKOWN=      0    Vosko Wilk Nusair interpolation
   ROPT   =   -0.00050  -0.00050  -0.00050  -0.00050
   ROPT   =   -0.00050
 Ionic relaxation
   EDIFFG = -.5E-01   stopping-criterion for IOM
   NSW    =    500    number of steps for IOM
   NBLOCK =      1;   KBLOCK =    500    inner block; outer block
   IBRION =      2    ionic relax: 0-MD 1-quasi-New 2-CG
   NFREE  =      1    steps in history (QN), initial steepest desc. (CG)
   ISIF   =      2    stress and relaxation
[...]
   -.261E+02 -.294E+02 0.396E+02   0.262E+02 0.350E+02 -.416E+02   -.202E+00 -.562E+01 0.194E+01   -.132E-03 0.503E-04 -.287E-04
   -.445E+02 -.199E+01 0.364E+02   0.497E+02 -.750E+00 -.378E+02   -.518E+01 0.272E+01 0.139E+01   0.431E-04 -.212E-03 -.632E-04
   0.483E+02 0.334E+02 0.612E+02   -.528E+02 -.363E+02 -.635E+02   0.446E+01 0.284E+01 0.243E+01   -.325E-05 -.701E-04 0.545E-04
   0.232E+03 -.268E+01 -.352E+01   -.252E+03 0.306E+01 0.386E+01   0.205E+02 -.393E+00 -.344E+00   0.741E-03 0.739E-03 -.209E-04
   -.102E+02 0.147E+03 0.183E+03   0.118E+02 -.156E+03 -.199E+03   -.155E+01 0.920E+01 0.164E+02   0.625E-03 -.929E-03 0.133E-03
   0.589E+01 0.113E+03 0.211E+03   -.592E+01 -.119E+03 -.228E+03   0.210E-01 0.535E+01 0.171E+02   0.907E-04 -.489E-04 0.185E-02
   -.204E+00 0.131E+03 0.213E+03   -.518E+00 -.137E+03 -.232E+03   0.714E+00 0.638E+01 0.192E+02   0.107E-02 -.712E-04 0.135E-02
   -.114E+03 0.696E+02 -.183E+03   0.119E+03 -.728E+02 0.199E+03   -.551E+01 0.319E+01 -.162E+02   -.338E-03 -.188E-02 -.208E-03
   -.121E+03 0.665E+02 -.190E+03   0.127E+03 -.701E+02 0.207E+03   -.643E+01 0.364E+01 -.173E+02   0.239E-04 -.867E-03 0.151E-02
   0.111E+03 0.619E+02 -.205E+03   -.115E+03 -.650E+02 0.222E+03   0.489E+01 0.306E+01 -.180E+02   -.356E-03 -.125E-02 0.135E-02
   0.141E+03 0.749E+02 -.202E+03   -.150E+03 -.790E+02 0.219E+03   0.955E+01 0.408E+01 -.172E+02   -.768E-03 0.102E-02 -.378E-03
   0.958E+02 0.561E+02 -.182E+03   -.101E+03 -.590E+02 0.200E+03   0.494E+01 0.297E+01 -.180E+02   0.160E-02 0.746E-03 -.129E-03
   0.105E+03 -.563E+02 0.194E+03   -.109E+03 0.573E+02 -.211E+03   0.397E+01 -.102E+01 0.179E+02   0.414E-03 0.999E-03 -.108E-02
   -.705E+02 0.311E+02 -.133E+03   0.828E+02 -.380E+02 0.144E+03   -.123E+02 0.686E+01 -.106E+02   0.511E-03 -.576E-03 -.399E-03
   -.111E+03 -.657E+02 0.202E+03   0.116E+03 0.693E+02 -.220E+03   -.539E+01 -.354E+01 0.179E+02   -.965E-03 0.106E-02 -.610E-03
   0.637E+02 0.315E+02 -.144E+03   -.750E+02 -.373E+02 0.156E+03   0.114E+02 0.578E+01 -.117E+02   -.646E-03 -.496E-03 -.510E-03
   0.219E+02 0.814E+02 0.115E+03   -.234E+02 -.984E+02 -.125E+03   0.149E+01 0.170E+02 0.105E+02   -.493E-03 0.209E-02 -.157E-02
   -.109E+03 -.203E+03 0.143E+02   0.118E+03 0.220E+03 -.156E+02   -.945E+01 -.179E+02 0.129E+01   0.770E-03 0.114E-03 -.839E-03
   -.190E+03 -.779E+02 -.870E+02   0.207E+03 0.847E+02 0.926E+02   -.171E+02 -.680E+01 -.558E+01   -.135E-02 0.453E-03 -.933E-04
   0.124E+03 -.208E+03 -.626E+01   -.135E+03 0.227E+03 0.643E+01   0.113E+02 -.193E+02 -.176E+00   -.288E-03 0.765E-03 -.240E-03
   0.107E+03 -.195E+03 0.123E+02   -.117E+03 0.212E+03 -.133E+02   0.925E+01 -.173E+02 0.967E+00   -.361E-03 0.291E-04 0.115E-02
   -.237E+03 0.139E+02 0.219E+02   0.258E+03 -.154E+02 -.241E+02   -.211E+02 0.151E+01 0.221E+01   0.311E-03 -.171E-03 -.288E-03
   0.102E+03 0.178E+03 -.683E+01   -.112E+03 -.192E+03 0.752E+01   0.100E+02 0.145E+02 -.699E+00   0.145E-02 -.116E-02 -.108E-02
   0.112E+03 0.185E+03 0.180E+02   -.121E+03 -.203E+03 -.177E+02   0.925E+01 0.177E+02 -.329E+00   0.263E-02 -.310E-03 0.997E-03
   0.118E+03 -.216E+03 0.594E+01   -.128E+03 0.236E+03 -.746E+01   0.102E+02 -.199E+02 0.151E+01   0.972E-03 0.208E-02 -.799E-04
   -.116E+03 0.213E+03 -.129E+02   0.127E+03 -.233E+03 0.148E+02   -.109E+02 0.200E+02 -.183E+01   -.330E-03 -.100E-02 0.772E-03
   -.961E+02 0.442E+02 -.196E+03   0.101E+03 -.456E+02 0.211E+03   -.473E+01 0.138E+01 -.156E+02   -.189E-02 0.148E-02 -.373E-03
   -.118E+03 0.188E+03 0.191E+02   0.129E+03 -.204E+03 -.208E+02   -.109E+02 0.166E+02 0.168E+01   -.443E-03 -.781E-03 0.184E-02
   -.964E+02 -.553E+02 0.207E+03   0.996E+02 0.573E+02 -.224E+03   -.325E+01 -.199E+01 0.170E+02   0.171E-03 0.859E-03 -.102E-03
   -.230E+03 -.157E+01 0.873E+00   0.250E+03 0.226E+01 -.939E+00   -.199E+02 -.693E+00 0.969E-01   -.839E-03 -.300E-03 0.450E-04
   0.559E+01 -.149E+03 -.185E+03   -.616E+01 0.158E+03 0.199E+03   0.559E+00 -.925E+01 -.144E+02   0.361E-03 0.114E-02 -.632E-03
   0.245E+03 0.235E-01 -.558E+01   -.264E+03 0.251E+00 0.557E+01   0.190E+02 -.279E+00 0.180E-01   0.927E-03 -.529E-03 0.365E-03
   -.109E+03 0.185E+03 0.128E+02   0.118E+03 -.204E+03 -.126E+02   -.898E+01 0.190E+02 -.253E+00   -.921E-03 0.160E-03 0.204E-03
   -.112E+03 0.205E+03 0.892E+01   0.120E+03 -.221E+03 -.912E+01   -.763E+01 0.155E+02 0.204E+00   0.830E-03 -.942E-03 0.840E-03
   -.130E+03 -.167E+03 -.137E+02   0.144E+03 0.173E+03 0.176E+02   -.140E+02 -.639E+01 -.387E+01   -.716E-03 0.219E-02 -.641E-03
   -.130E+03 -.214E+03 0.432E+01   0.141E+03 0.232E+03 -.453E+01   -.108E+02 -.178E+02 0.187E+00   -.449E-03 0.948E-03 -.141E-02
   -.120E+03 -.206E+03 0.359E+01   0.129E+03 0.221E+03 -.390E+01   -.885E+01 -.158E+02 0.300E+00   -.184E-02 0.106E-03 -.509E-03
   0.248E+03 -.827E-01 0.425E-01   -.268E+03 0.447E+00 0.417E+00   0.197E+02 -.371E+00 -.466E+00   0.903E-03 -.675E-03 0.179E-02
   0.218E+01 -.107E+03 -.204E+03   -.334E+01 0.111E+03 0.220E+03   0.116E+01 -.368E+01 -.159E+02   -.664E-03 -.155E-02 -.985E-03
   0.244E+03 0.809E+00 0.292E+01   -.263E+03 -.200E+01 -.316E+01   0.192E+02 0.119E+01 0.261E+00   0.109E-02 0.127E-02 0.171E-02
   -.137E+03 -.105E+02 0.361E+02   0.147E+03 0.369E+01 -.230E+02   -.104E+02 0.685E+01 -.131E+02   -.210E-02 -.847E-03 -.340E-02
   -.225E+03 -.609E+01 0.538E+02   0.239E+03 0.143E+02 -.627E+02   -.140E+02 -.823E+01 0.888E+01   0.541E-03 -.141E-02 -.115E-02
   -.240E+03 -.348E+01 0.551E+01   0.259E+03 0.359E+01 -.589E+01   -.188E+02 -.117E+00 0.378E+00   -.171E-02 -.924E-03 0.135E-02
   0.131E+03 0.207E+03 -.101E+02   -.142E+03 -.223E+03 0.101E+02   0.116E+02 0.162E+02 0.195E-01   0.784E-03 -.105E-02 0.778E-03
   0.134E+03 0.211E+03 0.355E+01   -.144E+03 -.229E+03 -.384E+01   0.976E+01 0.179E+02 0.293E+00   -.666E-03 0.260E-03 0.788E-03
   -.139E+03 0.206E+03 -.308E+00   0.149E+03 -.224E+03 -.117E+01   -.107E+02 0.175E+02 0.147E+01   0.449E-03 -.252E-02 -.741E-03
   0.102E+03 0.200E+03 0.756E+01   -.109E+03 -.215E+03 -.793E+01   0.685E+01 0.150E+02 0.388E+00   0.171E-02 -.705E-03 0.173E-02
   0.104E+03 -.531E+02 0.212E+03   -.109E+03 0.562E+02 -.230E+03   0.474E+01 -.303E+01 0.180E+02   0.208E-03 -.170E-03 0.923E-03
   0.113E+03 -.684E+02 0.192E+03   -.119E+03 0.717E+02 -.208E+03   0.577E+01 -.327E+01 0.162E+02   0.113E-02 0.135E-02 0.886E-03
   0.132E+03 -.214E+03 -.447E+01   -.142E+03 0.231E+03 0.487E+01   0.106E+02 -.169E+02 -.393E+00   -.120E-02 0.168E-02 -.142E-02
   -.751E+02 0.494E+02 -.164E+03   0.908E+02 -.582E+02 0.174E+03   -.157E+02 0.880E+01 -.931E+01   -.142E-02 -.203E-02 0.387E-03
   0.107E+03 -.183E+03 -.654E+00   -.117E+03 0.199E+03 0.251E+01   0.104E+02 -.164E+02 -.186E+01   0.151E-03 -.131E-02 -.897E-03
   -.256E+03 -.661E+01 0.550E+01   0.277E+03 0.718E+01 -.579E+01   -.215E+02 -.573E+00 0.285E+00   0.819E-03 0.627E-04 0.256E-03
   0.226E+03 0.930E+00 -.301E+01   -.243E+03 -.153E+01 0.199E+01   0.174E+02 0.603E+00 0.103E+01   -.149E-02 0.174E-02 -.821E-03
   -.109E+03 -.200E+03 0.180E+01   0.119E+03 0.218E+03 -.182E+01   -.959E+01 -.176E+02 0.368E-01   -.722E-03 0.222E-04 -.893E-03
   -.103E+02 -.896E+02 -.156E+03   0.108E+02 0.104E+03 0.170E+03   -.500E+00 -.147E+02 -.140E+02   0.901E-03 -.444E-03 0.811E-03
   -.698E+02 0.423E+02 -.152E+03   0.832E+02 -.503E+02 0.163E+03   -.135E+02 0.802E+01 -.111E+02   -.107E-02 -.117E-02 0.635E-03
   -.354E+01 -.123E+03 -.200E+03   0.378E+01 0.128E+03 0.218E+03   -.226E+00 -.542E+01 -.184E+02   -.875E-03 -.748E-03 0.511E-03
[...]
   0.591E+02 0.378E+02 -.517E+02   -.590E+02 -.368E+02 0.516E+02   -.131E+00 -.100E+01 0.103E+00   0.509E-03 -.614E-03 0.470E-03
   0.567E+02 -.386E+02 0.361E+02   -.569E+02 0.379E+02 -.360E+02   0.154E+00 0.672E+00 -.941E-01   0.314E-04 0.178E-03 -.122E-03
   -.554E+02 -.402E+02 0.460E+02   0.549E+02 0.400E+02 -.457E+02   0.477E+00 0.213E+00 -.336E+00   -.799E-03 -.136E-03 -.683E-04
   0.564E+02 -.179E+02 0.533E+02   -.560E+02 0.182E+02 -.522E+02   -.322E+00 -.320E+00 -.116E+01   0.619E-03 0.258E-03 0.363E-03
   -.509E+02 0.541E+02 -.450E+02   0.518E+02 -.533E+02 0.413E+02   -.938E+00 -.809E+00 0.376E+01   0.132E-03 -.112E-02 0.803E-04
   0.642E+02 -.288E+02 0.471E+02   -.635E+02 0.290E+02 -.465E+02   -.726E+00 -.107E+00 -.573E+00   0.384E-03 0.825E-03 -.229E-04
   -.120E+02 0.681E+02 0.494E+02   0.111E+02 -.686E+02 -.491E+02   0.935E+00 0.516E+00 -.235E+00   0.952E-03 0.876E-05 0.102E-02
   0.734E+01 0.604E+02 0.520E+02   -.728E+01 -.597E+02 -.523E+02   -.500E-01 -.753E+00 0.317E+00   0.321E-03 0.106E-04 0.700E-03
   -.630E+02 -.288E+02 0.453E+02   0.626E+02 0.290E+02 -.453E+02   0.370E+00 -.212E+00 -.283E-01   -.128E-02 0.716E-03 -.404E-03
   0.570E+02 -.382E+02 0.500E+02   -.567E+02 0.379E+02 -.492E+02   -.235E+00 0.342E+00 -.809E+00   -.225E-03 0.374E-04 0.144E-02
   0.565E+02 -.429E+02 0.433E+02   -.560E+02 0.425E+02 -.431E+02   -.539E+00 0.383E+00 -.150E+00   0.895E-03 0.128E-02 0.526E-03
   -.549E+02 -.376E+02 0.431E+00   0.522E+02 0.398E+02 0.235E+00   0.275E+01 -.225E+01 -.665E+00   -.591E-03 0.436E-03 -.150E-02
   -.379E+01 0.645E+02 0.528E+02   0.320E+01 -.640E+02 -.522E+02   0.586E+00 -.571E+00 -.628E+00   -.672E-03 -.231E-03 0.163E-02
   0.727E+02 0.273E+02 -.503E+02   -.726E+02 -.267E+02 0.496E+02   -.191E+00 -.602E+00 0.744E+00   -.523E-03 0.763E-03 0.408E-03
   -.230E+01 0.480E+01 0.246E+02   -.540E-12 -.210E-12 0.533E-12   0.234E+01 -.485E+01 -.246E+02   -.790E-02 -.943E-02 0.147E-01

 POSITION                                       TOTAL-FORCE (eV/Angst)
      3.19586      7.90700      8.45775        -0.022611     -0.011119     -0.023887
      2.70015      9.57325      6.24141        -0.036983     -0.004647      0.021994
      2.72706     10.61408      5.91082        -0.021457      0.002183     -0.001483
      3.64245      9.07479      6.00303        -0.005231     -0.022649     -0.015087
      1.85016      9.03896      5.79986        -0.028876     -0.008263      0.035957
     -2.05637      3.95768     12.44111        -0.003300     -0.011293     -0.007087
     -0.01003      5.00112      8.01718         0.005882     -0.019295     -0.002008
      6.89270      1.11251      3.04273        -0.009998     -0.000215      0.000837
      6.84374      9.02610     12.89685        -0.007070      0.013320     -0.002521
      2.43584      6.49275     11.94012         0.002470     -0.004127      0.012389
     -4.34055     10.44530      1.96661         0.019218     -0.006432      0.010057
     -2.47309      6.50149     11.92541        -0.001026      0.000651     -0.011222
      4.28520      2.48773      6.91563         0.009268     -0.003579     -0.000920
      4.42756     10.46942      2.04249         0.018486      0.007911     -0.007622
     -2.40657      9.31157      7.95735         0.003437     -0.003556      0.006821
     11.68516      1.17593      1.84365         0.010587      0.008456     -0.000924
      2.45665      1.42062     12.90482        -0.005735      0.011822      0.010754
      9.03526      5.19522      6.78186        -0.015274     -0.004426     -0.001528
      0.03030     10.26462      8.13989        -0.018883      0.006021     -0.015463
     11.32967      3.74112      2.47538        -0.011281      0.007286      0.003259
      8.79690      0.18429      7.63828         0.004547      0.029817     -0.015490
     -4.42951      7.76019      7.44093        -0.012076     -0.006432     -0.008130
      2.44597      3.73009      2.46298        -0.002487     -0.000594     -0.008411
      8.95758      7.88550      2.43408        -0.013164     -0.021355      0.007927
      2.43437      4.26072      7.44746         0.001637     -0.002545     -0.001352
      9.30388      0.18627      2.55560         0.008293      0.002452      0.002661
      2.38997     11.69680     12.43782         0.028518      0.003612     -0.015835
     -2.37702      4.10079      7.48892        -0.006808     -0.002703     -0.011557
      9.30361      2.59886      6.88619        -0.017347      0.006931     -0.010194
      4.49423      0.23597      2.43846         0.000188     -0.015118     -0.002304
      9.33196      5.34906      3.02093        -0.002408      0.003144      0.008094
      2.01410      3.95461     12.41913         0.016329     -0.002538      0.030831
     -0.01809     10.82697     11.86147        -0.009336      0.013519     -0.009036
     -3.56476      7.92184      9.93322         0.017135     -0.004306      0.005586
      8.63447      0.78749      5.04558        -0.007036     -0.013477     -0.005677
      8.60751      8.80941     -0.00191        -0.010427     -0.000619      0.003991
      1.88798     10.79585      9.99469         0.028261      0.004497     -0.025815
      8.74380      7.10895      4.93944        -0.007579     -0.000194     -0.020416
      1.77006      3.06264      0.00147        -0.000453      0.010184     -0.007974
      3.26882      3.97710      4.95650         0.006969     -0.007459     -0.004738
      6.94397      6.73910      6.87441        -0.007389     -0.005414     -0.001520
      3.26888     11.84259      0.04687        -0.016926     -0.007926      0.025126
      2.56837      9.54332      7.72379        -0.037772      0.015177     -0.027515
      3.49373      8.17731     10.11293         0.013192      0.022033     -0.016624
      3.57744     -0.00453     -0.02060        -0.004197     -0.002355     -0.002891
     -1.85022      4.80787      9.96042         0.010310      0.006616      0.020215
      5.05237      0.83156      4.94915        -0.013900      0.007311      0.009452
      1.81483      4.81467      9.94138         0.002378      0.015766     -0.007496
      5.17066      8.83775      0.07160        -0.013680     -0.002300      0.013556
      4.42397      5.38641      2.99752         0.004698      0.003559     -0.008959
     11.23835      1.41476     12.98347         0.002452      0.003560      0.002571
     -1.81622     11.02968      9.91477         0.021492      0.006791      0.006136
      4.91588      5.05515      6.75953        -0.022493     -0.002722      0.003345
      5.08376      7.04315      4.98986        -0.008520      0.001531     -0.002459
     10.56135      3.97702      4.97094        -0.014214     -0.008297     -0.008047
      4.88401     -0.02929      7.41988        -0.014667      0.006200      0.010398
     -2.44027     11.66918     12.39027        -0.002895      0.012278      0.018821
      6.91197      9.53491      1.95167         0.003670      0.003526     -0.000551
     -2.02695      9.10217     11.75907        -0.002203      0.002556      0.007706
      0.01879      2.82279      2.00257         0.008100      0.008793      0.009023
[...]
      5.36273      6.61913      6.55059        -0.007638     -0.010146     -0.002676
      3.72477      3.96755      6.52567        -0.025570     -0.006952     -0.007861
     -3.11094      7.90674      8.36921         0.007402      0.014092      0.007106
      3.11264     -0.00084     13.30872        -0.002189     -0.009760     -0.005202
      5.32004      6.66872      3.42821         0.010003     -0.010693     -0.032258
      3.08005      7.95108     11.63953         0.019317     -0.011610     -0.002597
     -1.57216      2.70363     13.34479         0.008427      0.020486     -0.003608
      5.29720      9.16640     13.37579         0.019253      0.006073      0.026128
      8.45012      1.21772      3.46999         0.010570     -0.001763     -0.021125
      1.54903      2.69736     13.31968         0.000989     -0.012440      0.002382
      3.74705      3.96921      3.40192         0.006013     -0.012254     -0.005048
     10.58155     -0.01507     13.36424        -0.000674     -0.001261      0.032340
      1.55509     10.71952      8.42659         0.010451     -0.019122      0.000046
      5.31477      1.25192      3.39687        -0.007077     -0.002128     -0.006491
      5.25091      1.25917      6.50726        -0.027326     -0.007415     -0.005051
    total drift:                                0.028937     -0.059111     -0.013302

  FREE ENERGIE OF THE ION-ELECTRON SYSTEM (eV)
  free  energy   TOTEN  =      -872.63539724 eV

  energy  without entropy=     -872.63539724  energy(sigma->0) =     -872.63539724

 d Force = 0.1626767E-02[ 0.117E-02, 0.208E-02]  d Energy = 0.1618812E-02 0.796E-05
 d Force = 0.8232923E+00[ 0.832E+00, 0.815E+00]  d Ewald  = 0.8232914E+00 0.857E-06

 Conjugate gradient step on ions:
 trial-energy change:   -0.001619  1 .order   -0.001627   -0.002082   -0.001172
  (g-gl).g = 0.374E-02      g.g   = 0.452E-02  gl.gl    = 0.535E-02
 g(Force)  = 0.452E-02   g(Stress)= 0.000E+00 ortho     = 0.563E-03
 gamma     =   0.69913
 trial     =   0.42368
 opt step  =   1.05052  (harmonic =   0.96902) maximal distance =0.00579870
 next E    =  -872.636238   (d E  =  -0.00246)

 reached required accuracy - stopping structural energy minimisation